*SPEF "ieee 1481-1999"
*DESIGN "openframe_project_wrapper"
*DATE "19:02:30 Saturday October 04, 2025"
*VENDOR "The OpenROAD Project"
*PROGRAM "OpenROAD"
*VERSION "b16bda7e82721d10566ff7e2b68f1ff0be9f9e38"
*DESIGN_FLOW "NAME_SCOPE LOCAL" "PIN_CAP NONE"
*DIVIDER /
*DELIMITER :
*BUS_DELIMITER []
*T_UNIT 1 NS
*C_UNIT 1 PF
*R_UNIT 1 OHM
*L_UNIT 1 HENRY

*NAME_MAP
*1 analog_io[0]
*2 analog_io[10]
*3 analog_io[11]
*4 analog_io[12]
*5 analog_io[13]
*6 analog_io[14]
*7 analog_io[15]
*8 analog_io[16]
*9 analog_io[17]
*10 analog_io[18]
*11 analog_io[19]
*12 analog_io[1]
*13 analog_io[20]
*14 analog_io[21]
*15 analog_io[22]
*16 analog_io[23]
*17 analog_io[24]
*18 analog_io[25]
*19 analog_io[26]
*20 analog_io[27]
*21 analog_io[28]
*22 analog_io[29]
*23 analog_io[2]
*24 analog_io[30]
*25 analog_io[31]
*26 analog_io[32]
*27 analog_io[33]
*28 analog_io[34]
*29 analog_io[35]
*30 analog_io[36]
*31 analog_io[37]
*32 analog_io[38]
*33 analog_io[39]
*34 analog_io[3]
*35 analog_io[40]
*36 analog_io[41]
*37 analog_io[42]
*38 analog_io[43]
*39 analog_io[4]
*40 analog_io[5]
*41 analog_io[6]
*42 analog_io[7]
*43 analog_io[8]
*44 analog_io[9]
*45 analog_noesd_io[0]
*46 analog_noesd_io[10]
*47 analog_noesd_io[11]
*48 analog_noesd_io[12]
*49 analog_noesd_io[13]
*50 analog_noesd_io[14]
*51 analog_noesd_io[15]
*52 analog_noesd_io[16]
*53 analog_noesd_io[17]
*54 analog_noesd_io[18]
*55 analog_noesd_io[19]
*56 analog_noesd_io[1]
*57 analog_noesd_io[20]
*58 analog_noesd_io[21]
*59 analog_noesd_io[22]
*60 analog_noesd_io[23]
*61 analog_noesd_io[24]
*62 analog_noesd_io[25]
*63 analog_noesd_io[26]
*64 analog_noesd_io[27]
*65 analog_noesd_io[28]
*66 analog_noesd_io[29]
*67 analog_noesd_io[2]
*68 analog_noesd_io[30]
*69 analog_noesd_io[31]
*70 analog_noesd_io[32]
*71 analog_noesd_io[33]
*72 analog_noesd_io[34]
*73 analog_noesd_io[35]
*74 analog_noesd_io[36]
*75 analog_noesd_io[37]
*76 analog_noesd_io[38]
*77 analog_noesd_io[39]
*78 analog_noesd_io[3]
*79 analog_noesd_io[40]
*80 analog_noesd_io[41]
*81 analog_noesd_io[42]
*82 analog_noesd_io[43]
*83 analog_noesd_io[4]
*84 analog_noesd_io[5]
*85 analog_noesd_io[6]
*86 analog_noesd_io[7]
*87 analog_noesd_io[8]
*88 analog_noesd_io[9]
*89 gpio_loopback_zero[0]
*90 gpio_loopback_zero[10]
*91 gpio_loopback_zero[11]
*92 gpio_loopback_zero[12]
*93 gpio_loopback_zero[13]
*94 gpio_loopback_zero[14]
*95 gpio_loopback_zero[15]
*96 gpio_loopback_zero[16]
*97 gpio_loopback_zero[17]
*98 gpio_loopback_zero[18]
*99 gpio_loopback_zero[19]
*100 gpio_loopback_zero[1]
*101 gpio_loopback_zero[20]
*102 gpio_loopback_zero[21]
*103 gpio_loopback_zero[22]
*104 gpio_loopback_zero[23]
*105 gpio_loopback_zero[24]
*106 gpio_loopback_zero[25]
*107 gpio_loopback_zero[26]
*108 gpio_loopback_zero[27]
*109 gpio_loopback_zero[28]
*110 gpio_loopback_zero[29]
*111 gpio_loopback_zero[2]
*112 gpio_loopback_zero[30]
*113 gpio_loopback_zero[31]
*114 gpio_loopback_zero[32]
*115 gpio_loopback_zero[33]
*116 gpio_loopback_zero[34]
*117 gpio_loopback_zero[35]
*118 gpio_loopback_zero[36]
*119 gpio_loopback_zero[37]
*120 gpio_loopback_zero[38]
*121 gpio_loopback_zero[39]
*122 gpio_loopback_zero[3]
*123 gpio_loopback_zero[40]
*124 gpio_loopback_zero[41]
*125 gpio_loopback_zero[42]
*126 gpio_loopback_zero[43]
*127 gpio_loopback_zero[4]
*128 gpio_loopback_zero[5]
*129 gpio_loopback_zero[6]
*130 gpio_loopback_zero[7]
*131 gpio_loopback_zero[8]
*132 gpio_loopback_zero[9]
*133 gpio_dm0[0]
*134 gpio_dm0[10]
*135 gpio_dm0[11]
*136 gpio_dm0[12]
*137 gpio_dm0[13]
*138 gpio_dm0[14]
*139 gpio_dm0[15]
*140 gpio_dm0[16]
*141 gpio_dm0[17]
*142 gpio_dm0[18]
*143 gpio_dm0[19]
*144 gpio_dm0[1]
*145 gpio_dm0[20]
*146 gpio_dm0[21]
*147 gpio_dm0[22]
*148 gpio_dm0[23]
*149 gpio_dm0[24]
*150 gpio_dm0[25]
*151 gpio_dm0[26]
*152 gpio_dm0[27]
*153 gpio_dm0[28]
*154 gpio_dm0[29]
*155 gpio_dm0[2]
*156 gpio_dm0[30]
*157 gpio_dm0[31]
*158 gpio_dm0[32]
*159 gpio_dm0[33]
*160 gpio_dm0[34]
*161 gpio_dm0[35]
*162 gpio_dm0[36]
*163 gpio_dm0[37]
*164 gpio_dm0[38]
*165 gpio_dm0[39]
*166 gpio_dm0[3]
*167 gpio_dm0[40]
*168 gpio_dm0[41]
*169 gpio_dm0[42]
*170 gpio_dm0[43]
*171 gpio_dm0[4]
*172 gpio_dm0[5]
*173 gpio_dm0[6]
*174 gpio_dm0[7]
*175 gpio_dm0[8]
*176 gpio_dm0[9]
*177 gpio_dm1[0]
*178 gpio_dm1[10]
*179 gpio_dm1[11]
*180 gpio_dm1[12]
*181 gpio_dm1[13]
*182 gpio_dm1[14]
*183 gpio_dm1[15]
*184 gpio_dm1[16]
*185 gpio_dm1[17]
*186 gpio_dm1[18]
*187 gpio_dm1[19]
*188 gpio_dm1[1]
*189 gpio_dm1[20]
*190 gpio_dm1[21]
*191 gpio_dm1[22]
*192 gpio_dm1[23]
*193 gpio_dm1[24]
*194 gpio_dm1[25]
*195 gpio_dm1[26]
*196 gpio_dm1[27]
*197 gpio_dm1[28]
*198 gpio_dm1[29]
*199 gpio_dm1[2]
*200 gpio_dm1[30]
*201 gpio_dm1[31]
*202 gpio_dm1[32]
*203 gpio_dm1[33]
*204 gpio_dm1[34]
*205 gpio_dm1[35]
*206 gpio_dm1[36]
*207 gpio_dm1[37]
*208 gpio_dm1[38]
*209 gpio_dm1[39]
*210 gpio_dm1[3]
*211 gpio_dm1[40]
*212 gpio_dm1[41]
*213 gpio_dm1[42]
*214 gpio_dm1[43]
*215 gpio_dm1[4]
*216 gpio_dm1[5]
*217 gpio_dm1[6]
*218 gpio_dm1[7]
*219 gpio_dm1[8]
*220 gpio_dm1[9]
*221 gpio_dm2[0]
*222 gpio_dm2[10]
*223 gpio_dm2[11]
*224 gpio_dm2[12]
*225 gpio_dm2[13]
*226 gpio_dm2[14]
*227 gpio_dm2[15]
*228 gpio_dm2[16]
*229 gpio_dm2[17]
*230 gpio_dm2[18]
*231 gpio_dm2[19]
*232 gpio_dm2[1]
*233 gpio_dm2[20]
*234 gpio_dm2[21]
*235 gpio_dm2[22]
*236 gpio_dm2[23]
*237 gpio_dm2[24]
*238 gpio_dm2[25]
*239 gpio_dm2[26]
*240 gpio_dm2[27]
*241 gpio_dm2[28]
*242 gpio_dm2[29]
*243 gpio_dm2[2]
*244 gpio_dm2[30]
*245 gpio_dm2[31]
*246 gpio_dm2[32]
*247 gpio_dm2[33]
*248 gpio_dm2[34]
*249 gpio_dm2[35]
*250 gpio_dm2[36]
*251 gpio_dm2[37]
*252 gpio_dm2[38]
*253 gpio_dm2[39]
*254 gpio_dm2[3]
*255 gpio_dm2[40]
*256 gpio_dm2[41]
*257 gpio_dm2[42]
*258 gpio_dm2[43]
*259 gpio_dm2[4]
*260 gpio_dm2[5]
*261 gpio_dm2[6]
*262 gpio_dm2[7]
*263 gpio_dm2[8]
*264 gpio_dm2[9]
*265 gpio_ib_mode_sel[0]
*266 gpio_ib_mode_sel[10]
*267 gpio_ib_mode_sel[11]
*268 gpio_ib_mode_sel[12]
*269 gpio_ib_mode_sel[13]
*270 gpio_ib_mode_sel[14]
*271 gpio_ib_mode_sel[15]
*272 gpio_ib_mode_sel[16]
*273 gpio_ib_mode_sel[17]
*274 gpio_ib_mode_sel[18]
*275 gpio_ib_mode_sel[19]
*276 gpio_ib_mode_sel[1]
*277 gpio_ib_mode_sel[20]
*278 gpio_ib_mode_sel[21]
*279 gpio_ib_mode_sel[22]
*280 gpio_ib_mode_sel[23]
*281 gpio_ib_mode_sel[24]
*282 gpio_ib_mode_sel[25]
*283 gpio_ib_mode_sel[26]
*284 gpio_ib_mode_sel[27]
*285 gpio_ib_mode_sel[28]
*286 gpio_ib_mode_sel[29]
*287 gpio_ib_mode_sel[2]
*288 gpio_ib_mode_sel[30]
*289 gpio_ib_mode_sel[31]
*290 gpio_ib_mode_sel[32]
*291 gpio_ib_mode_sel[33]
*292 gpio_ib_mode_sel[34]
*293 gpio_ib_mode_sel[35]
*294 gpio_ib_mode_sel[36]
*295 gpio_ib_mode_sel[37]
*296 gpio_ib_mode_sel[38]
*297 gpio_ib_mode_sel[39]
*298 gpio_ib_mode_sel[3]
*299 gpio_ib_mode_sel[40]
*300 gpio_ib_mode_sel[41]
*301 gpio_ib_mode_sel[42]
*302 gpio_ib_mode_sel[43]
*303 gpio_ib_mode_sel[4]
*304 gpio_ib_mode_sel[5]
*305 gpio_ib_mode_sel[6]
*306 gpio_ib_mode_sel[7]
*307 gpio_ib_mode_sel[8]
*308 gpio_ib_mode_sel[9]
*309 gpio_in[0]
*310 gpio_in[10]
*311 gpio_in[11]
*312 gpio_in[12]
*313 gpio_in[13]
*314 gpio_in[14]
*315 gpio_in[15]
*316 gpio_in[16]
*317 gpio_in[17]
*318 gpio_in[18]
*319 gpio_in[19]
*320 gpio_in[1]
*321 gpio_in[20]
*322 gpio_in[21]
*323 gpio_in[22]
*324 gpio_in[23]
*325 gpio_in[24]
*326 gpio_in[25]
*327 gpio_in[26]
*328 gpio_in[27]
*329 gpio_in[28]
*330 gpio_in[29]
*331 gpio_in[2]
*332 gpio_in[30]
*333 gpio_in[31]
*334 gpio_in[32]
*335 gpio_in[33]
*336 gpio_in[34]
*337 gpio_in[35]
*338 gpio_in[36]
*339 gpio_in[37]
*340 gpio_in[38]
*341 gpio_in[39]
*342 gpio_in[3]
*343 gpio_in[40]
*344 gpio_in[41]
*345 gpio_in[42]
*346 gpio_in[43]
*347 gpio_in[4]
*348 gpio_in[5]
*349 gpio_in[6]
*350 gpio_in[7]
*351 gpio_in[8]
*352 gpio_in[9]
*353 gpio_in_h[0]
*354 gpio_in_h[10]
*355 gpio_in_h[11]
*356 gpio_in_h[12]
*357 gpio_in_h[13]
*358 gpio_in_h[14]
*359 gpio_in_h[15]
*360 gpio_in_h[16]
*361 gpio_in_h[17]
*362 gpio_in_h[18]
*363 gpio_in_h[19]
*364 gpio_in_h[1]
*365 gpio_in_h[20]
*366 gpio_in_h[21]
*367 gpio_in_h[22]
*368 gpio_in_h[23]
*369 gpio_in_h[24]
*370 gpio_in_h[25]
*371 gpio_in_h[26]
*372 gpio_in_h[27]
*373 gpio_in_h[28]
*374 gpio_in_h[29]
*375 gpio_in_h[2]
*376 gpio_in_h[30]
*377 gpio_in_h[31]
*378 gpio_in_h[32]
*379 gpio_in_h[33]
*380 gpio_in_h[34]
*381 gpio_in_h[35]
*382 gpio_in_h[36]
*383 gpio_in_h[37]
*384 gpio_in_h[38]
*385 gpio_in_h[39]
*386 gpio_in_h[3]
*387 gpio_in_h[40]
*388 gpio_in_h[41]
*389 gpio_in_h[42]
*390 gpio_in_h[43]
*391 gpio_in_h[4]
*392 gpio_in_h[5]
*393 gpio_in_h[6]
*394 gpio_in_h[7]
*395 gpio_in_h[8]
*396 gpio_in_h[9]
*397 gpio_inp_dis[0]
*398 gpio_inp_dis[10]
*399 gpio_inp_dis[11]
*400 gpio_inp_dis[12]
*401 gpio_inp_dis[13]
*402 gpio_inp_dis[14]
*403 gpio_inp_dis[15]
*404 gpio_inp_dis[16]
*405 gpio_inp_dis[17]
*406 gpio_inp_dis[18]
*407 gpio_inp_dis[19]
*408 gpio_inp_dis[1]
*409 gpio_inp_dis[20]
*410 gpio_inp_dis[21]
*411 gpio_inp_dis[22]
*412 gpio_inp_dis[23]
*413 gpio_inp_dis[24]
*414 gpio_inp_dis[25]
*415 gpio_inp_dis[26]
*416 gpio_inp_dis[27]
*417 gpio_inp_dis[28]
*418 gpio_inp_dis[29]
*419 gpio_inp_dis[2]
*420 gpio_inp_dis[30]
*421 gpio_inp_dis[31]
*422 gpio_inp_dis[32]
*423 gpio_inp_dis[33]
*424 gpio_inp_dis[34]
*425 gpio_inp_dis[35]
*426 gpio_inp_dis[36]
*427 gpio_inp_dis[37]
*428 gpio_inp_dis[38]
*429 gpio_inp_dis[39]
*430 gpio_inp_dis[3]
*431 gpio_inp_dis[40]
*432 gpio_inp_dis[41]
*433 gpio_inp_dis[42]
*434 gpio_inp_dis[43]
*435 gpio_inp_dis[4]
*436 gpio_inp_dis[5]
*437 gpio_inp_dis[6]
*438 gpio_inp_dis[7]
*439 gpio_inp_dis[8]
*440 gpio_inp_dis[9]
*441 gpio_loopback_one[0]
*442 gpio_loopback_one[10]
*443 gpio_loopback_one[11]
*444 gpio_loopback_one[12]
*445 gpio_loopback_one[13]
*446 gpio_loopback_one[14]
*447 gpio_loopback_one[15]
*448 gpio_loopback_one[16]
*449 gpio_loopback_one[17]
*450 gpio_loopback_one[18]
*451 gpio_loopback_one[19]
*452 gpio_loopback_one[1]
*453 gpio_loopback_one[20]
*454 gpio_loopback_one[21]
*455 gpio_loopback_one[22]
*456 gpio_loopback_one[23]
*457 gpio_loopback_one[24]
*458 gpio_loopback_one[25]
*459 gpio_loopback_one[26]
*460 gpio_loopback_one[27]
*461 gpio_loopback_one[28]
*462 gpio_loopback_one[29]
*463 gpio_loopback_one[2]
*464 gpio_loopback_one[30]
*465 gpio_loopback_one[31]
*466 gpio_loopback_one[32]
*467 gpio_loopback_one[33]
*468 gpio_loopback_one[34]
*469 gpio_loopback_one[35]
*470 gpio_loopback_one[36]
*471 gpio_loopback_one[37]
*472 gpio_loopback_one[38]
*473 gpio_loopback_one[39]
*474 gpio_loopback_one[3]
*475 gpio_loopback_one[40]
*476 gpio_loopback_one[41]
*477 gpio_loopback_one[42]
*478 gpio_loopback_one[43]
*479 gpio_loopback_one[4]
*480 gpio_loopback_one[5]
*481 gpio_loopback_one[6]
*482 gpio_loopback_one[7]
*483 gpio_loopback_one[8]
*484 gpio_loopback_one[9]
*485 gpio_oeb[0]
*486 gpio_oeb[10]
*487 gpio_oeb[11]
*488 gpio_oeb[12]
*489 gpio_oeb[13]
*490 gpio_oeb[14]
*491 gpio_oeb[15]
*492 gpio_oeb[16]
*493 gpio_oeb[17]
*494 gpio_oeb[18]
*495 gpio_oeb[19]
*496 gpio_oeb[1]
*497 gpio_oeb[20]
*498 gpio_oeb[21]
*499 gpio_oeb[22]
*500 gpio_oeb[23]
*501 gpio_oeb[24]
*502 gpio_oeb[25]
*503 gpio_oeb[26]
*504 gpio_oeb[27]
*505 gpio_oeb[28]
*506 gpio_oeb[29]
*507 gpio_oeb[2]
*508 gpio_oeb[30]
*509 gpio_oeb[31]
*510 gpio_oeb[32]
*511 gpio_oeb[33]
*512 gpio_oeb[34]
*513 gpio_oeb[35]
*514 gpio_oeb[36]
*515 gpio_oeb[37]
*516 gpio_oeb[38]
*517 gpio_oeb[39]
*518 gpio_oeb[3]
*519 gpio_oeb[40]
*520 gpio_oeb[41]
*521 gpio_oeb[42]
*522 gpio_oeb[43]
*523 gpio_oeb[4]
*524 gpio_oeb[5]
*525 gpio_oeb[6]
*526 gpio_oeb[7]
*527 gpio_oeb[8]
*528 gpio_oeb[9]
*529 gpio_out[0]
*530 gpio_out[10]
*531 gpio_out[11]
*532 gpio_out[12]
*533 gpio_out[13]
*534 gpio_out[14]
*535 gpio_out[15]
*536 gpio_out[16]
*537 gpio_out[17]
*538 gpio_out[18]
*539 gpio_out[19]
*540 gpio_out[1]
*541 gpio_out[20]
*542 gpio_out[21]
*543 gpio_out[22]
*544 gpio_out[23]
*545 gpio_out[24]
*546 gpio_out[25]
*547 gpio_out[26]
*548 gpio_out[27]
*549 gpio_out[28]
*550 gpio_out[29]
*551 gpio_out[2]
*552 gpio_out[30]
*553 gpio_out[31]
*554 gpio_out[32]
*555 gpio_out[33]
*556 gpio_out[34]
*557 gpio_out[35]
*558 gpio_out[36]
*559 gpio_out[37]
*560 gpio_out[38]
*561 gpio_out[39]
*562 gpio_out[3]
*563 gpio_out[40]
*564 gpio_out[41]
*565 gpio_out[42]
*566 gpio_out[43]
*567 gpio_out[4]
*568 gpio_out[5]
*569 gpio_out[6]
*570 gpio_out[7]
*571 gpio_out[8]
*572 gpio_out[9]
*573 gpio_slow_sel[0]
*574 gpio_slow_sel[10]
*575 gpio_slow_sel[11]
*576 gpio_slow_sel[12]
*577 gpio_slow_sel[13]
*578 gpio_slow_sel[14]
*579 gpio_slow_sel[15]
*580 gpio_slow_sel[16]
*581 gpio_slow_sel[17]
*582 gpio_slow_sel[18]
*583 gpio_slow_sel[19]
*584 gpio_slow_sel[1]
*585 gpio_slow_sel[20]
*586 gpio_slow_sel[21]
*587 gpio_slow_sel[22]
*588 gpio_slow_sel[23]
*589 gpio_slow_sel[24]
*590 gpio_slow_sel[25]
*591 gpio_slow_sel[26]
*592 gpio_slow_sel[27]
*593 gpio_slow_sel[28]
*594 gpio_slow_sel[29]
*595 gpio_slow_sel[2]
*596 gpio_slow_sel[30]
*597 gpio_slow_sel[31]
*598 gpio_slow_sel[32]
*599 gpio_slow_sel[33]
*600 gpio_slow_sel[34]
*601 gpio_slow_sel[35]
*602 gpio_slow_sel[36]
*603 gpio_slow_sel[37]
*604 gpio_slow_sel[38]
*605 gpio_slow_sel[39]
*606 gpio_slow_sel[3]
*607 gpio_slow_sel[40]
*608 gpio_slow_sel[41]
*609 gpio_slow_sel[42]
*610 gpio_slow_sel[43]
*611 gpio_slow_sel[4]
*612 gpio_slow_sel[5]
*613 gpio_slow_sel[6]
*614 gpio_slow_sel[7]
*615 gpio_slow_sel[8]
*616 gpio_slow_sel[9]
*617 gpio_vtrip_sel[0]
*618 gpio_vtrip_sel[10]
*619 gpio_vtrip_sel[11]
*620 gpio_vtrip_sel[12]
*621 gpio_vtrip_sel[13]
*622 gpio_vtrip_sel[14]
*623 gpio_vtrip_sel[15]
*624 gpio_vtrip_sel[16]
*625 gpio_vtrip_sel[17]
*626 gpio_vtrip_sel[18]
*627 gpio_vtrip_sel[19]
*628 gpio_vtrip_sel[1]
*629 gpio_vtrip_sel[20]
*630 gpio_vtrip_sel[21]
*631 gpio_vtrip_sel[22]
*632 gpio_vtrip_sel[23]
*633 gpio_vtrip_sel[24]
*634 gpio_vtrip_sel[25]
*635 gpio_vtrip_sel[26]
*636 gpio_vtrip_sel[27]
*637 gpio_vtrip_sel[28]
*638 gpio_vtrip_sel[29]
*639 gpio_vtrip_sel[2]
*640 gpio_vtrip_sel[30]
*641 gpio_vtrip_sel[31]
*642 gpio_vtrip_sel[32]
*643 gpio_vtrip_sel[33]
*644 gpio_vtrip_sel[34]
*645 gpio_vtrip_sel[35]
*646 gpio_vtrip_sel[36]
*647 gpio_vtrip_sel[37]
*648 gpio_vtrip_sel[38]
*649 gpio_vtrip_sel[39]
*650 gpio_vtrip_sel[3]
*651 gpio_vtrip_sel[40]
*652 gpio_vtrip_sel[41]
*653 gpio_vtrip_sel[42]
*654 gpio_vtrip_sel[43]
*655 gpio_vtrip_sel[4]
*656 gpio_vtrip_sel[5]
*657 gpio_vtrip_sel[6]
*658 gpio_vtrip_sel[7]
*659 gpio_vtrip_sel[8]
*660 gpio_vtrip_sel[9]
*661 mask_rev[0]
*662 mask_rev[10]
*663 mask_rev[11]
*664 mask_rev[12]
*665 mask_rev[13]
*666 mask_rev[14]
*667 mask_rev[15]
*668 mask_rev[16]
*669 mask_rev[17]
*670 mask_rev[18]
*671 mask_rev[19]
*672 mask_rev[1]
*673 mask_rev[20]
*674 mask_rev[21]
*675 mask_rev[22]
*676 mask_rev[23]
*677 mask_rev[24]
*678 mask_rev[25]
*679 mask_rev[26]
*680 mask_rev[27]
*681 mask_rev[28]
*682 mask_rev[29]
*683 mask_rev[2]
*684 mask_rev[30]
*685 mask_rev[31]
*686 mask_rev[3]
*687 mask_rev[4]
*688 mask_rev[5]
*689 mask_rev[6]
*690 mask_rev[7]
*691 mask_rev[8]
*692 mask_rev[9]
*693 por_l
*694 porb_h
*695 porb_l
*696 resetb_h
*697 resetb_l
*698 mprj

*PORTS
analog_io[0] I
analog_io[10] I
analog_io[11] I
analog_io[12] I
analog_io[13] I
analog_io[14] I
analog_io[15] I
analog_io[16] I
analog_io[17] I
analog_io[18] I
analog_io[19] I
analog_io[1] I
analog_io[20] I
analog_io[21] I
analog_io[22] I
analog_io[23] I
analog_io[24] I
analog_io[25] I
analog_io[26] I
analog_io[27] I
analog_io[28] I
analog_io[29] I
analog_io[2] I
analog_io[30] I
analog_io[31] I
analog_io[32] I
analog_io[33] I
analog_io[34] I
analog_io[35] I
analog_io[36] I
analog_io[37] I
analog_io[38] I
analog_io[39] I
analog_io[3] I
analog_io[40] I
analog_io[41] I
analog_io[42] I
analog_io[43] I
analog_io[4] I
analog_io[5] I
analog_io[6] I
analog_io[7] I
analog_io[8] I
analog_io[9] I
analog_noesd_io[0] I
analog_noesd_io[10] I
analog_noesd_io[11] I
analog_noesd_io[12] I
analog_noesd_io[13] I
analog_noesd_io[14] I
analog_noesd_io[15] I
analog_noesd_io[16] I
analog_noesd_io[17] I
analog_noesd_io[18] I
analog_noesd_io[19] I
analog_noesd_io[1] I
analog_noesd_io[20] I
analog_noesd_io[21] I
analog_noesd_io[22] I
analog_noesd_io[23] I
analog_noesd_io[24] I
analog_noesd_io[25] I
analog_noesd_io[26] I
analog_noesd_io[27] I
analog_noesd_io[28] I
analog_noesd_io[29] I
analog_noesd_io[2] I
analog_noesd_io[30] I
analog_noesd_io[31] I
analog_noesd_io[32] I
analog_noesd_io[33] I
analog_noesd_io[34] I
analog_noesd_io[35] I
analog_noesd_io[36] I
analog_noesd_io[37] I
analog_noesd_io[38] I
analog_noesd_io[39] I
analog_noesd_io[3] I
analog_noesd_io[40] I
analog_noesd_io[41] I
analog_noesd_io[42] I
analog_noesd_io[43] I
analog_noesd_io[4] I
analog_noesd_io[5] I
analog_noesd_io[6] I
analog_noesd_io[7] I
analog_noesd_io[8] I
analog_noesd_io[9] I
gpio_analog_en[0] O
gpio_analog_en[10] O
gpio_analog_en[11] O
gpio_analog_en[12] O
gpio_analog_en[13] O
gpio_analog_en[14] O
gpio_analog_en[15] O
gpio_analog_en[16] O
gpio_analog_en[17] O
gpio_analog_en[18] O
gpio_analog_en[19] O
gpio_analog_en[1] O
gpio_analog_en[20] O
gpio_analog_en[21] O
gpio_analog_en[22] O
gpio_analog_en[23] O
gpio_analog_en[24] O
gpio_analog_en[25] O
gpio_analog_en[26] O
gpio_analog_en[27] O
gpio_analog_en[28] O
gpio_analog_en[29] O
gpio_analog_en[2] O
gpio_analog_en[30] O
gpio_analog_en[31] O
gpio_analog_en[32] O
gpio_analog_en[33] O
gpio_analog_en[34] O
gpio_analog_en[35] O
gpio_analog_en[36] O
gpio_analog_en[37] O
gpio_analog_en[38] O
gpio_analog_en[39] O
gpio_analog_en[3] O
gpio_analog_en[40] O
gpio_analog_en[41] O
gpio_analog_en[42] O
gpio_analog_en[43] O
gpio_analog_en[4] O
gpio_analog_en[5] O
gpio_analog_en[6] O
gpio_analog_en[7] O
gpio_analog_en[8] O
gpio_analog_en[9] O
gpio_analog_pol[0] O
gpio_analog_pol[10] O
gpio_analog_pol[11] O
gpio_analog_pol[12] O
gpio_analog_pol[13] O
gpio_analog_pol[14] O
gpio_analog_pol[15] O
gpio_analog_pol[16] O
gpio_analog_pol[17] O
gpio_analog_pol[18] O
gpio_analog_pol[19] O
gpio_analog_pol[1] O
gpio_analog_pol[20] O
gpio_analog_pol[21] O
gpio_analog_pol[22] O
gpio_analog_pol[23] O
gpio_analog_pol[24] O
gpio_analog_pol[25] O
gpio_analog_pol[26] O
gpio_analog_pol[27] O
gpio_analog_pol[28] O
gpio_analog_pol[29] O
gpio_analog_pol[2] O
gpio_analog_pol[30] O
gpio_analog_pol[31] O
gpio_analog_pol[32] O
gpio_analog_pol[33] O
gpio_analog_pol[34] O
gpio_analog_pol[35] O
gpio_analog_pol[36] O
gpio_analog_pol[37] O
gpio_analog_pol[38] O
gpio_analog_pol[39] O
gpio_analog_pol[3] O
gpio_analog_pol[40] O
gpio_analog_pol[41] O
gpio_analog_pol[42] O
gpio_analog_pol[43] O
gpio_analog_pol[4] O
gpio_analog_pol[5] O
gpio_analog_pol[6] O
gpio_analog_pol[7] O
gpio_analog_pol[8] O
gpio_analog_pol[9] O
gpio_analog_sel[0] O
gpio_analog_sel[10] O
gpio_analog_sel[11] O
gpio_analog_sel[12] O
gpio_analog_sel[13] O
gpio_analog_sel[14] O
gpio_analog_sel[15] O
gpio_analog_sel[16] O
gpio_analog_sel[17] O
gpio_analog_sel[18] O
gpio_analog_sel[19] O
gpio_analog_sel[1] O
gpio_analog_sel[20] O
gpio_analog_sel[21] O
gpio_analog_sel[22] O
gpio_analog_sel[23] O
gpio_analog_sel[24] O
gpio_analog_sel[25] O
gpio_analog_sel[26] O
gpio_analog_sel[27] O
gpio_analog_sel[28] O
gpio_analog_sel[29] O
gpio_analog_sel[2] O
gpio_analog_sel[30] O
gpio_analog_sel[31] O
gpio_analog_sel[32] O
gpio_analog_sel[33] O
gpio_analog_sel[34] O
gpio_analog_sel[35] O
gpio_analog_sel[36] O
gpio_analog_sel[37] O
gpio_analog_sel[38] O
gpio_analog_sel[39] O
gpio_analog_sel[3] O
gpio_analog_sel[40] O
gpio_analog_sel[41] O
gpio_analog_sel[42] O
gpio_analog_sel[43] O
gpio_analog_sel[4] O
gpio_analog_sel[5] O
gpio_analog_sel[6] O
gpio_analog_sel[7] O
gpio_analog_sel[8] O
gpio_analog_sel[9] O
gpio_dm0[0] O
gpio_dm0[10] O
gpio_dm0[11] O
gpio_dm0[12] O
gpio_dm0[13] O
gpio_dm0[14] O
gpio_dm0[15] O
gpio_dm0[16] O
gpio_dm0[17] O
gpio_dm0[18] O
gpio_dm0[19] O
gpio_dm0[1] O
gpio_dm0[20] O
gpio_dm0[21] O
gpio_dm0[22] O
gpio_dm0[23] O
gpio_dm0[24] O
gpio_dm0[25] O
gpio_dm0[26] O
gpio_dm0[27] O
gpio_dm0[28] O
gpio_dm0[29] O
gpio_dm0[2] O
gpio_dm0[30] O
gpio_dm0[31] O
gpio_dm0[32] O
gpio_dm0[33] O
gpio_dm0[34] O
gpio_dm0[35] O
gpio_dm0[36] O
gpio_dm0[37] O
gpio_dm0[38] O
gpio_dm0[39] O
gpio_dm0[3] O
gpio_dm0[40] O
gpio_dm0[41] O
gpio_dm0[42] O
gpio_dm0[43] O
gpio_dm0[4] O
gpio_dm0[5] O
gpio_dm0[6] O
gpio_dm0[7] O
gpio_dm0[8] O
gpio_dm0[9] O
gpio_dm1[0] O
gpio_dm1[10] O
gpio_dm1[11] O
gpio_dm1[12] O
gpio_dm1[13] O
gpio_dm1[14] O
gpio_dm1[15] O
gpio_dm1[16] O
gpio_dm1[17] O
gpio_dm1[18] O
gpio_dm1[19] O
gpio_dm1[1] O
gpio_dm1[20] O
gpio_dm1[21] O
gpio_dm1[22] O
gpio_dm1[23] O
gpio_dm1[24] O
gpio_dm1[25] O
gpio_dm1[26] O
gpio_dm1[27] O
gpio_dm1[28] O
gpio_dm1[29] O
gpio_dm1[2] O
gpio_dm1[30] O
gpio_dm1[31] O
gpio_dm1[32] O
gpio_dm1[33] O
gpio_dm1[34] O
gpio_dm1[35] O
gpio_dm1[36] O
gpio_dm1[37] O
gpio_dm1[38] O
gpio_dm1[39] O
gpio_dm1[3] O
gpio_dm1[40] O
gpio_dm1[41] O
gpio_dm1[42] O
gpio_dm1[43] O
gpio_dm1[4] O
gpio_dm1[5] O
gpio_dm1[6] O
gpio_dm1[7] O
gpio_dm1[8] O
gpio_dm1[9] O
gpio_dm2[0] O
gpio_dm2[10] O
gpio_dm2[11] O
gpio_dm2[12] O
gpio_dm2[13] O
gpio_dm2[14] O
gpio_dm2[15] O
gpio_dm2[16] O
gpio_dm2[17] O
gpio_dm2[18] O
gpio_dm2[19] O
gpio_dm2[1] O
gpio_dm2[20] O
gpio_dm2[21] O
gpio_dm2[22] O
gpio_dm2[23] O
gpio_dm2[24] O
gpio_dm2[25] O
gpio_dm2[26] O
gpio_dm2[27] O
gpio_dm2[28] O
gpio_dm2[29] O
gpio_dm2[2] O
gpio_dm2[30] O
gpio_dm2[31] O
gpio_dm2[32] O
gpio_dm2[33] O
gpio_dm2[34] O
gpio_dm2[35] O
gpio_dm2[36] O
gpio_dm2[37] O
gpio_dm2[38] O
gpio_dm2[39] O
gpio_dm2[3] O
gpio_dm2[40] O
gpio_dm2[41] O
gpio_dm2[42] O
gpio_dm2[43] O
gpio_dm2[4] O
gpio_dm2[5] O
gpio_dm2[6] O
gpio_dm2[7] O
gpio_dm2[8] O
gpio_dm2[9] O
gpio_holdover[0] O
gpio_holdover[10] O
gpio_holdover[11] O
gpio_holdover[12] O
gpio_holdover[13] O
gpio_holdover[14] O
gpio_holdover[15] O
gpio_holdover[16] O
gpio_holdover[17] O
gpio_holdover[18] O
gpio_holdover[19] O
gpio_holdover[1] O
gpio_holdover[20] O
gpio_holdover[21] O
gpio_holdover[22] O
gpio_holdover[23] O
gpio_holdover[24] O
gpio_holdover[25] O
gpio_holdover[26] O
gpio_holdover[27] O
gpio_holdover[28] O
gpio_holdover[29] O
gpio_holdover[2] O
gpio_holdover[30] O
gpio_holdover[31] O
gpio_holdover[32] O
gpio_holdover[33] O
gpio_holdover[34] O
gpio_holdover[35] O
gpio_holdover[36] O
gpio_holdover[37] O
gpio_holdover[38] O
gpio_holdover[39] O
gpio_holdover[3] O
gpio_holdover[40] O
gpio_holdover[41] O
gpio_holdover[42] O
gpio_holdover[43] O
gpio_holdover[4] O
gpio_holdover[5] O
gpio_holdover[6] O
gpio_holdover[7] O
gpio_holdover[8] O
gpio_holdover[9] O
gpio_ib_mode_sel[0] O
gpio_ib_mode_sel[10] O
gpio_ib_mode_sel[11] O
gpio_ib_mode_sel[12] O
gpio_ib_mode_sel[13] O
gpio_ib_mode_sel[14] O
gpio_ib_mode_sel[15] O
gpio_ib_mode_sel[16] O
gpio_ib_mode_sel[17] O
gpio_ib_mode_sel[18] O
gpio_ib_mode_sel[19] O
gpio_ib_mode_sel[1] O
gpio_ib_mode_sel[20] O
gpio_ib_mode_sel[21] O
gpio_ib_mode_sel[22] O
gpio_ib_mode_sel[23] O
gpio_ib_mode_sel[24] O
gpio_ib_mode_sel[25] O
gpio_ib_mode_sel[26] O
gpio_ib_mode_sel[27] O
gpio_ib_mode_sel[28] O
gpio_ib_mode_sel[29] O
gpio_ib_mode_sel[2] O
gpio_ib_mode_sel[30] O
gpio_ib_mode_sel[31] O
gpio_ib_mode_sel[32] O
gpio_ib_mode_sel[33] O
gpio_ib_mode_sel[34] O
gpio_ib_mode_sel[35] O
gpio_ib_mode_sel[36] O
gpio_ib_mode_sel[37] O
gpio_ib_mode_sel[38] O
gpio_ib_mode_sel[39] O
gpio_ib_mode_sel[3] O
gpio_ib_mode_sel[40] O
gpio_ib_mode_sel[41] O
gpio_ib_mode_sel[42] O
gpio_ib_mode_sel[43] O
gpio_ib_mode_sel[4] O
gpio_ib_mode_sel[5] O
gpio_ib_mode_sel[6] O
gpio_ib_mode_sel[7] O
gpio_ib_mode_sel[8] O
gpio_ib_mode_sel[9] O
gpio_in[0] I
gpio_in[10] I
gpio_in[11] I
gpio_in[12] I
gpio_in[13] I
gpio_in[14] I
gpio_in[15] I
gpio_in[16] I
gpio_in[17] I
gpio_in[18] I
gpio_in[19] I
gpio_in[1] I
gpio_in[20] I
gpio_in[21] I
gpio_in[22] I
gpio_in[23] I
gpio_in[24] I
gpio_in[25] I
gpio_in[26] I
gpio_in[27] I
gpio_in[28] I
gpio_in[29] I
gpio_in[2] I
gpio_in[30] I
gpio_in[31] I
gpio_in[32] I
gpio_in[33] I
gpio_in[34] I
gpio_in[35] I
gpio_in[36] I
gpio_in[37] I
gpio_in[38] I
gpio_in[39] I
gpio_in[3] I
gpio_in[40] I
gpio_in[41] I
gpio_in[42] I
gpio_in[43] I
gpio_in[4] I
gpio_in[5] I
gpio_in[6] I
gpio_in[7] I
gpio_in[8] I
gpio_in[9] I
gpio_in_h[0] I
gpio_in_h[10] I
gpio_in_h[11] I
gpio_in_h[12] I
gpio_in_h[13] I
gpio_in_h[14] I
gpio_in_h[15] I
gpio_in_h[16] I
gpio_in_h[17] I
gpio_in_h[18] I
gpio_in_h[19] I
gpio_in_h[1] I
gpio_in_h[20] I
gpio_in_h[21] I
gpio_in_h[22] I
gpio_in_h[23] I
gpio_in_h[24] I
gpio_in_h[25] I
gpio_in_h[26] I
gpio_in_h[27] I
gpio_in_h[28] I
gpio_in_h[29] I
gpio_in_h[2] I
gpio_in_h[30] I
gpio_in_h[31] I
gpio_in_h[32] I
gpio_in_h[33] I
gpio_in_h[34] I
gpio_in_h[35] I
gpio_in_h[36] I
gpio_in_h[37] I
gpio_in_h[38] I
gpio_in_h[39] I
gpio_in_h[3] I
gpio_in_h[40] I
gpio_in_h[41] I
gpio_in_h[42] I
gpio_in_h[43] I
gpio_in_h[4] I
gpio_in_h[5] I
gpio_in_h[6] I
gpio_in_h[7] I
gpio_in_h[8] I
gpio_in_h[9] I
gpio_inp_dis[0] O
gpio_inp_dis[10] O
gpio_inp_dis[11] O
gpio_inp_dis[12] O
gpio_inp_dis[13] O
gpio_inp_dis[14] O
gpio_inp_dis[15] O
gpio_inp_dis[16] O
gpio_inp_dis[17] O
gpio_inp_dis[18] O
gpio_inp_dis[19] O
gpio_inp_dis[1] O
gpio_inp_dis[20] O
gpio_inp_dis[21] O
gpio_inp_dis[22] O
gpio_inp_dis[23] O
gpio_inp_dis[24] O
gpio_inp_dis[25] O
gpio_inp_dis[26] O
gpio_inp_dis[27] O
gpio_inp_dis[28] O
gpio_inp_dis[29] O
gpio_inp_dis[2] O
gpio_inp_dis[30] O
gpio_inp_dis[31] O
gpio_inp_dis[32] O
gpio_inp_dis[33] O
gpio_inp_dis[34] O
gpio_inp_dis[35] O
gpio_inp_dis[36] O
gpio_inp_dis[37] O
gpio_inp_dis[38] O
gpio_inp_dis[39] O
gpio_inp_dis[3] O
gpio_inp_dis[40] O
gpio_inp_dis[41] O
gpio_inp_dis[42] O
gpio_inp_dis[43] O
gpio_inp_dis[4] O
gpio_inp_dis[5] O
gpio_inp_dis[6] O
gpio_inp_dis[7] O
gpio_inp_dis[8] O
gpio_inp_dis[9] O
gpio_loopback_one[0] I
gpio_loopback_one[10] I
gpio_loopback_one[11] I
gpio_loopback_one[12] I
gpio_loopback_one[13] I
gpio_loopback_one[14] I
gpio_loopback_one[15] I
gpio_loopback_one[16] I
gpio_loopback_one[17] I
gpio_loopback_one[18] I
gpio_loopback_one[19] I
gpio_loopback_one[1] I
gpio_loopback_one[20] I
gpio_loopback_one[21] I
gpio_loopback_one[22] I
gpio_loopback_one[23] I
gpio_loopback_one[24] I
gpio_loopback_one[25] I
gpio_loopback_one[26] I
gpio_loopback_one[27] I
gpio_loopback_one[28] I
gpio_loopback_one[29] I
gpio_loopback_one[2] I
gpio_loopback_one[30] I
gpio_loopback_one[31] I
gpio_loopback_one[32] I
gpio_loopback_one[33] I
gpio_loopback_one[34] I
gpio_loopback_one[35] I
gpio_loopback_one[36] I
gpio_loopback_one[37] I
gpio_loopback_one[38] I
gpio_loopback_one[39] I
gpio_loopback_one[3] I
gpio_loopback_one[40] I
gpio_loopback_one[41] I
gpio_loopback_one[42] I
gpio_loopback_one[43] I
gpio_loopback_one[4] I
gpio_loopback_one[5] I
gpio_loopback_one[6] I
gpio_loopback_one[7] I
gpio_loopback_one[8] I
gpio_loopback_one[9] I
gpio_loopback_zero[0] I
gpio_loopback_zero[10] I
gpio_loopback_zero[11] I
gpio_loopback_zero[12] I
gpio_loopback_zero[13] I
gpio_loopback_zero[14] I
gpio_loopback_zero[15] I
gpio_loopback_zero[16] I
gpio_loopback_zero[17] I
gpio_loopback_zero[18] I
gpio_loopback_zero[19] I
gpio_loopback_zero[1] I
gpio_loopback_zero[20] I
gpio_loopback_zero[21] I
gpio_loopback_zero[22] I
gpio_loopback_zero[23] I
gpio_loopback_zero[24] I
gpio_loopback_zero[25] I
gpio_loopback_zero[26] I
gpio_loopback_zero[27] I
gpio_loopback_zero[28] I
gpio_loopback_zero[29] I
gpio_loopback_zero[2] I
gpio_loopback_zero[30] I
gpio_loopback_zero[31] I
gpio_loopback_zero[32] I
gpio_loopback_zero[33] I
gpio_loopback_zero[34] I
gpio_loopback_zero[35] I
gpio_loopback_zero[36] I
gpio_loopback_zero[37] I
gpio_loopback_zero[38] I
gpio_loopback_zero[39] I
gpio_loopback_zero[3] I
gpio_loopback_zero[40] I
gpio_loopback_zero[41] I
gpio_loopback_zero[42] I
gpio_loopback_zero[43] I
gpio_loopback_zero[4] I
gpio_loopback_zero[5] I
gpio_loopback_zero[6] I
gpio_loopback_zero[7] I
gpio_loopback_zero[8] I
gpio_loopback_zero[9] I
gpio_oeb[0] O
gpio_oeb[10] O
gpio_oeb[11] O
gpio_oeb[12] O
gpio_oeb[13] O
gpio_oeb[14] O
gpio_oeb[15] O
gpio_oeb[16] O
gpio_oeb[17] O
gpio_oeb[18] O
gpio_oeb[19] O
gpio_oeb[1] O
gpio_oeb[20] O
gpio_oeb[21] O
gpio_oeb[22] O
gpio_oeb[23] O
gpio_oeb[24] O
gpio_oeb[25] O
gpio_oeb[26] O
gpio_oeb[27] O
gpio_oeb[28] O
gpio_oeb[29] O
gpio_oeb[2] O
gpio_oeb[30] O
gpio_oeb[31] O
gpio_oeb[32] O
gpio_oeb[33] O
gpio_oeb[34] O
gpio_oeb[35] O
gpio_oeb[36] O
gpio_oeb[37] O
gpio_oeb[38] O
gpio_oeb[39] O
gpio_oeb[3] O
gpio_oeb[40] O
gpio_oeb[41] O
gpio_oeb[42] O
gpio_oeb[43] O
gpio_oeb[4] O
gpio_oeb[5] O
gpio_oeb[6] O
gpio_oeb[7] O
gpio_oeb[8] O
gpio_oeb[9] O
gpio_out[0] O
gpio_out[10] O
gpio_out[11] O
gpio_out[12] O
gpio_out[13] O
gpio_out[14] O
gpio_out[15] O
gpio_out[16] O
gpio_out[17] O
gpio_out[18] O
gpio_out[19] O
gpio_out[1] O
gpio_out[20] O
gpio_out[21] O
gpio_out[22] O
gpio_out[23] O
gpio_out[24] O
gpio_out[25] O
gpio_out[26] O
gpio_out[27] O
gpio_out[28] O
gpio_out[29] O
gpio_out[2] O
gpio_out[30] O
gpio_out[31] O
gpio_out[32] O
gpio_out[33] O
gpio_out[34] O
gpio_out[35] O
gpio_out[36] O
gpio_out[37] O
gpio_out[38] O
gpio_out[39] O
gpio_out[3] O
gpio_out[40] O
gpio_out[41] O
gpio_out[42] O
gpio_out[43] O
gpio_out[4] O
gpio_out[5] O
gpio_out[6] O
gpio_out[7] O
gpio_out[8] O
gpio_out[9] O
gpio_slow_sel[0] O
gpio_slow_sel[10] O
gpio_slow_sel[11] O
gpio_slow_sel[12] O
gpio_slow_sel[13] O
gpio_slow_sel[14] O
gpio_slow_sel[15] O
gpio_slow_sel[16] O
gpio_slow_sel[17] O
gpio_slow_sel[18] O
gpio_slow_sel[19] O
gpio_slow_sel[1] O
gpio_slow_sel[20] O
gpio_slow_sel[21] O
gpio_slow_sel[22] O
gpio_slow_sel[23] O
gpio_slow_sel[24] O
gpio_slow_sel[25] O
gpio_slow_sel[26] O
gpio_slow_sel[27] O
gpio_slow_sel[28] O
gpio_slow_sel[29] O
gpio_slow_sel[2] O
gpio_slow_sel[30] O
gpio_slow_sel[31] O
gpio_slow_sel[32] O
gpio_slow_sel[33] O
gpio_slow_sel[34] O
gpio_slow_sel[35] O
gpio_slow_sel[36] O
gpio_slow_sel[37] O
gpio_slow_sel[38] O
gpio_slow_sel[39] O
gpio_slow_sel[3] O
gpio_slow_sel[40] O
gpio_slow_sel[41] O
gpio_slow_sel[42] O
gpio_slow_sel[43] O
gpio_slow_sel[4] O
gpio_slow_sel[5] O
gpio_slow_sel[6] O
gpio_slow_sel[7] O
gpio_slow_sel[8] O
gpio_slow_sel[9] O
gpio_vtrip_sel[0] O
gpio_vtrip_sel[10] O
gpio_vtrip_sel[11] O
gpio_vtrip_sel[12] O
gpio_vtrip_sel[13] O
gpio_vtrip_sel[14] O
gpio_vtrip_sel[15] O
gpio_vtrip_sel[16] O
gpio_vtrip_sel[17] O
gpio_vtrip_sel[18] O
gpio_vtrip_sel[19] O
gpio_vtrip_sel[1] O
gpio_vtrip_sel[20] O
gpio_vtrip_sel[21] O
gpio_vtrip_sel[22] O
gpio_vtrip_sel[23] O
gpio_vtrip_sel[24] O
gpio_vtrip_sel[25] O
gpio_vtrip_sel[26] O
gpio_vtrip_sel[27] O
gpio_vtrip_sel[28] O
gpio_vtrip_sel[29] O
gpio_vtrip_sel[2] O
gpio_vtrip_sel[30] O
gpio_vtrip_sel[31] O
gpio_vtrip_sel[32] O
gpio_vtrip_sel[33] O
gpio_vtrip_sel[34] O
gpio_vtrip_sel[35] O
gpio_vtrip_sel[36] O
gpio_vtrip_sel[37] O
gpio_vtrip_sel[38] O
gpio_vtrip_sel[39] O
gpio_vtrip_sel[3] O
gpio_vtrip_sel[40] O
gpio_vtrip_sel[41] O
gpio_vtrip_sel[42] O
gpio_vtrip_sel[43] O
gpio_vtrip_sel[4] O
gpio_vtrip_sel[5] O
gpio_vtrip_sel[6] O
gpio_vtrip_sel[7] O
gpio_vtrip_sel[8] O
gpio_vtrip_sel[9] O
mask_rev[0] I
mask_rev[10] I
mask_rev[11] I
mask_rev[12] I
mask_rev[13] I
mask_rev[14] I
mask_rev[15] I
mask_rev[16] I
mask_rev[17] I
mask_rev[18] I
mask_rev[19] I
mask_rev[1] I
mask_rev[20] I
mask_rev[21] I
mask_rev[22] I
mask_rev[23] I
mask_rev[24] I
mask_rev[25] I
mask_rev[26] I
mask_rev[27] I
mask_rev[28] I
mask_rev[29] I
mask_rev[2] I
mask_rev[30] I
mask_rev[31] I
mask_rev[3] I
mask_rev[4] I
mask_rev[5] I
mask_rev[6] I
mask_rev[7] I
mask_rev[8] I
mask_rev[9] I
por_l I
porb_h I
porb_l I
resetb_h I
resetb_l I

*D_NET *89 0.00861744
*CONN
*P gpio_analog_sel[0] O
*P gpio_analog_pol[0] O
*P gpio_analog_en[0] O
*P gpio_holdover[0] O
*P gpio_loopback_zero[0] I
*CAP
1 gpio_analog_sel[0] 1.32022e-05
2 gpio_analog_pol[0] 1.32022e-05
3 gpio_analog_en[0] 0.000253736
4 gpio_holdover[0] 0.00348145
5 gpio_loopback_zero[0] 0.00311407
6 *89:50 0.000814069
7 *89:46 0.000927716
*RES
1 gpio_loopback_zero[0] gpio_holdover[0] 39.1157 
2 gpio_holdover[0] *89:46 1.5428 
3 *89:46 *89:50 2.4608 
4 *89:50 gpio_analog_en[0] 1.41073 
5 *89:50 gpio_analog_pol[0] 0.557 
6 *89:46 gpio_analog_sel[0] 0.057 
*END

*D_NET *90 0.00832767
*CONN
*P gpio_analog_sel[10] O
*P gpio_analog_pol[10] O
*P gpio_analog_en[10] O
*P gpio_holdover[10] O
*P gpio_loopback_zero[10] I
*CAP
1 gpio_analog_sel[10] 1.02684e-05
2 gpio_analog_pol[10] 1.32022e-05
3 gpio_analog_en[10] 0.000253736
4 gpio_holdover[10] 0.0033395
5 gpio_loopback_zero[10] 0.00292821
6 *90:57 0.000814069
7 *90:53 0.000952311
8 *90:32 1.63707e-05
9 gpio_holdover[10] gpio_out[10] 0
10 gpio_holdover[10] *486:9 0
11 gpio_holdover[10] *531:9 0
*RES
1 gpio_loopback_zero[10] gpio_holdover[10] 35.0547 
2 gpio_holdover[10] *90:32 0.143767 
3 gpio_holdover[10] *90:53 1.7081 
4 *90:53 *90:57 2.4608 
5 *90:57 gpio_analog_en[10] 1.41073 
6 *90:57 gpio_analog_pol[10] 0.557 
7 *90:53 gpio_analog_sel[10] 0.057 
*END

*D_NET *91 0.00549999
*CONN
*P gpio_holdover[11] O
*P gpio_analog_sel[11] O
*P gpio_analog_pol[11] O
*P gpio_analog_en[11] O
*P gpio_loopback_zero[11] I
*CAP
1 gpio_holdover[11] 5.86764e-06
2 gpio_analog_sel[11] 1.32022e-05
3 gpio_analog_pol[11] 1.24101e-05
4 gpio_analog_en[11] 0.000393239
5 gpio_loopback_zero[11] 0.00153761
6 *91:37 0.000958116
7 *91:33 0.000800867
8 *91:29 0.00177868
9 *91:29 gpio_out[11] 0
*RES
1 gpio_loopback_zero[11] *91:29 27.1785 
2 *91:29 *91:33 1.35373 
3 *91:33 *91:37 2.4608 
4 *91:37 gpio_analog_en[11] 1.5998 
5 *91:37 gpio_analog_pol[11] 0.057 
6 *91:33 gpio_analog_sel[11] 0.557 
7 *91:29 gpio_holdover[11] 0.057 
*END

*D_NET *92 0.00838099
*CONN
*P gpio_holdover[12] O
*P gpio_analog_sel[12] O
*P gpio_analog_pol[12] O
*P gpio_analog_en[12] O
*P gpio_loopback_zero[12] I
*CAP
1 gpio_holdover[12] 2.41453e-05
2 gpio_analog_sel[12] 1.10507e-05
3 gpio_analog_pol[12] 4.90926e-05
4 gpio_analog_en[12] 0.000283663
5 gpio_loopback_zero[12] 0.00291882
6 *92:43 0.000871408
7 *92:35 0.000914778
8 *92:17 0.00330804
9 gpio_holdover[12] gpio_out[12] 0
10 *92:17 gpio_oeb[12] 0
11 *92:17 gpio_out[12] 0
12 *92:17 *532:9 0
*RES
1 gpio_loopback_zero[12] *92:17 34.9502 
2 *92:17 *92:35 1.5333 
3 *92:35 *92:43 11.4752 
4 *92:43 gpio_analog_en[12] 5.49457 
5 *92:43 gpio_analog_pol[12] 0.721033 
6 *92:35 gpio_analog_sel[12] 0.057 
7 *92:17 gpio_holdover[12] 0.1045 
*END

*D_NET *93 0.00540117
*CONN
*P gpio_holdover[13] O
*P gpio_analog_en[13] O
*P gpio_analog_pol[13] O
*P gpio_analog_sel[13] O
*P gpio_loopback_zero[13] I
*CAP
1 gpio_holdover[13] 1.24101e-05
2 gpio_analog_en[13] 0.000338563
3 gpio_analog_pol[13] 5.82852e-05
4 gpio_analog_sel[13] 4.49461e-05
5 gpio_loopback_zero[13] 0.00133607
6 *93:51 0.000961169
7 *93:33 0.000955253
8 *93:19 0.00169447
*RES
1 gpio_loopback_zero[13] *93:19 28.0557 
2 *93:19 *93:33 1.38763 
3 *93:33 gpio_analog_sel[13] 0.212167 
4 *93:33 *93:51 13.345 
5 *93:51 gpio_analog_pol[13] 0.274233 
6 *93:51 gpio_analog_en[13] 1.38257 
7 *93:19 gpio_holdover[13] 0.057 
*END

*D_NET *94 0.0088522
*CONN
*P gpio_holdover[14] O
*P gpio_analog_en[14] O
*P gpio_analog_pol[14] O
*P gpio_analog_sel[14] O
*P gpio_loopback_zero[14] I
*CAP
1 gpio_holdover[14] 4.11126e-05
2 gpio_analog_en[14] 0.000372517
3 gpio_analog_pol[14] 0.00101883
4 gpio_analog_sel[14] 0.00104135
5 gpio_loopback_zero[14] 0.00297112
6 *94:40 2.47321e-05
7 *94:17 0.00338254
*RES
1 gpio_loopback_zero[14] *94:17 36.375 
2 *94:17 gpio_analog_sel[14] 1.4991 
3 gpio_analog_sel[14] *94:40 0.148833 
4 gpio_analog_sel[14] gpio_analog_pol[14] 9.92477 
5 gpio_analog_pol[14] gpio_analog_en[14] 1.5998 
6 *94:17 gpio_holdover[14] 0.2603 
*END

*D_NET *95 0.00996808
*CONN
*P gpio_analog_en[15] O
*P gpio_analog_pol[15] O
*P gpio_analog_sel[15] O
*P gpio_holdover[15] O
*P gpio_loopback_zero[15] I
*CAP
1 gpio_analog_en[15] 0.000289729
2 gpio_analog_pol[15] 8.22826e-06
3 gpio_analog_sel[15] 8.22826e-06
4 gpio_holdover[15] 0.00402245
5 gpio_loopback_zero[15] 0.00374095
6 *95:38 0.000953367
7 *95:28 0.000945139
*RES
1 gpio_loopback_zero[15] gpio_holdover[15] 38.7384 
2 gpio_holdover[15] *95:28 6.935 
3 *95:28 gpio_analog_sel[15] 2.18 
4 *95:28 *95:38 11.49 
5 *95:38 gpio_analog_pol[15] 2.18 
6 *95:38 gpio_analog_en[15] 7.115 
*END

*D_NET *96 0.00909535
*CONN
*P gpio_analog_en[16] O
*P gpio_analog_pol[16] O
*P gpio_analog_sel[16] O
*P gpio_holdover[16] O
*P gpio_loopback_zero[16] I
*CAP
1 gpio_analog_en[16] 0.000289729
2 gpio_analog_pol[16] 8.22826e-06
3 gpio_analog_sel[16] 1.28567e-05
4 gpio_holdover[16] 2.57133e-05
5 gpio_loopback_zero[16] 0.00325219
6 *96:59 0.000964303
7 *96:41 0.00097182
8 *96:17 0.00357052
*RES
1 gpio_loopback_zero[16] *96:17 36.766 
2 *96:17 gpio_holdover[16] 0.5625 
3 *96:17 *96:41 7.815 
4 *96:41 gpio_analog_sel[16] 0.5625 
5 *96:41 *96:59 14.5475 
6 *96:59 gpio_analog_pol[16] 2.18 
7 *96:59 gpio_analog_en[16] 7.115 
*END

*D_NET *97 0.00897133
*CONN
*P gpio_analog_en[17] O
*P gpio_analog_pol[17] O
*P gpio_analog_sel[17] O
*P gpio_holdover[17] O
*P gpio_loopback_zero[17] I
*CAP
1 gpio_analog_en[17] 0.000289729
2 gpio_analog_pol[17] 8.22826e-06
3 gpio_analog_sel[17] 0.000960884
4 gpio_holdover[17] 2.57133e-05
5 gpio_loopback_zero[17] 0.00320111
6 *97:50 0.000953367
7 *97:13 0.0035323
*RES
1 gpio_loopback_zero[17] *97:13 36.267 
2 *97:13 gpio_holdover[17] 0.5625 
3 *97:13 gpio_analog_sel[17] 8.3775 
4 gpio_analog_sel[17] *97:50 13.49 
5 *97:50 gpio_analog_pol[17] 2.18 
6 *97:50 gpio_analog_en[17] 7.115 
*END

*D_NET *98 0.0090015
*CONN
*P gpio_analog_en[18] O
*P gpio_analog_pol[18] O
*P gpio_analog_sel[18] O
*P gpio_holdover[18] O
*P gpio_loopback_zero[18] I
*CAP
1 gpio_analog_en[18] 0.000289729
2 gpio_analog_pol[18] 8.22826e-06
3 gpio_analog_sel[18] 0.000960884
4 gpio_holdover[18] 2.57133e-05
5 gpio_loopback_zero[18] 0.0032162
6 *98:54 0.000953367
7 *98:17 0.00354738
*RES
1 gpio_loopback_zero[18] *98:17 36.6495 
2 *98:17 gpio_holdover[18] 0.5625 
3 *98:17 gpio_analog_sel[18] 8.3775 
4 gpio_analog_sel[18] *98:54 13.49 
5 *98:54 gpio_analog_pol[18] 2.18 
6 *98:54 gpio_analog_en[18] 7.115 
*END

*D_NET *99 0.00992923
*CONN
*P gpio_analog_en[19] O
*P gpio_analog_pol[19] O
*P gpio_analog_sel[19] O
*P gpio_holdover[19] O
*P gpio_loopback_zero[19] I
*CAP
1 gpio_analog_en[19] 0.000289729
2 gpio_analog_pol[19] 8.22826e-06
3 gpio_analog_sel[19] 4.11413e-06
4 gpio_holdover[19] 0.00400103
5 gpio_loopback_zero[19] 0.0037259
6 *99:56 0.000959469
7 *99:38 0.000940758
*RES
1 gpio_loopback_zero[19] gpio_holdover[19] 38.3559 
2 gpio_holdover[19] *99:38 7.05 
3 *99:38 gpio_analog_sel[19] 0.18 
4 *99:38 *99:56 14.165 
5 *99:56 gpio_analog_pol[19] 2.18 
6 *99:56 gpio_analog_en[19] 7.115 
*END

*D_NET *100 0.0086916
*CONN
*P gpio_analog_pol[1] O
*P gpio_analog_en[1] O
*P gpio_analog_sel[1] O
*P gpio_holdover[1] O
*P gpio_loopback_zero[1] I
*CAP
1 gpio_analog_pol[1] 7.43626e-05
2 gpio_analog_en[1] 0.000301225
3 gpio_analog_sel[1] 5.21438e-05
4 gpio_holdover[1] 0.00340312
5 gpio_loopback_zero[1] 0.00309385
6 *100:56 0.00089054
7 *100:38 0.000876359
8 gpio_holdover[1] *331:13 0
9 gpio_holdover[1] *551:9 0
*RES
1 gpio_loopback_zero[1] gpio_holdover[1] 38.6259 
2 gpio_holdover[1] *100:38 1.19763 
3 *100:38 gpio_analog_sel[1] 0.250167 
4 *100:38 *100:56 11.765 
5 *100:56 gpio_analog_en[1] 6.39423 
6 *100:56 gpio_analog_pol[1] 0.776767 
*END

*D_NET *101 0.00982413
*CONN
*P gpio_analog_en[20] O
*P gpio_analog_pol[20] O
*P gpio_analog_sel[20] O
*P gpio_holdover[20] O
*P gpio_loopback_zero[20] I
*CAP
1 gpio_analog_en[20] 0.000289729
2 gpio_analog_pol[20] 8.22826e-06
3 gpio_analog_sel[20] 8.22826e-06
4 gpio_holdover[20] 0.00395047
5 gpio_loopback_zero[20] 0.00366897
6 *101:38 0.000953367
7 *101:28 0.000945139
*RES
1 gpio_loopback_zero[20] gpio_holdover[20] 38.5054 
2 gpio_holdover[20] *101:28 6.935 
3 *101:28 gpio_analog_sel[20] 2.18 
4 *101:28 *101:38 11.49 
5 *101:38 gpio_analog_pol[20] 2.18 
6 *101:38 gpio_analog_en[20] 7.115 
*END

*D_NET *102 0.0114464
*CONN
*P gpio_analog_en[21] O
*P gpio_analog_pol[21] O
*P gpio_analog_sel[21] O
*P gpio_holdover[21] O
*P gpio_loopback_zero[21] I
*CAP
1 gpio_analog_en[21] 0.000295077
2 gpio_analog_pol[21] 5.82835e-06
3 gpio_analog_sel[21] 0.000123938
4 gpio_holdover[21] 0.000176624
5 gpio_loopback_zero[21] 0.00306537
6 *102:45 0.00170208
7 *102:13 0.000955737
8 *102:9 0.00512171
*RES
1 gpio_loopback_zero[21] *102:9 23.0717 
2 *102:9 *102:13 14.885 
3 *102:13 gpio_holdover[21] 7.465 
4 *102:13 gpio_analog_sel[21] 2.91 
5 *102:9 *102:45 17.8554 
6 *102:45 gpio_analog_pol[21] 0.18 
7 *102:45 gpio_analog_en[21] 9.79 
*END

*D_NET *103 0.0096911
*CONN
*P gpio_analog_en[22] O
*P gpio_analog_pol[22] O
*P gpio_analog_sel[22] O
*P gpio_holdover[22] O
*P gpio_loopback_zero[22] I
*CAP
1 gpio_analog_en[22] 0.000289729
2 gpio_analog_pol[22] 8.22826e-06
3 gpio_analog_sel[22] 0.000960884
4 gpio_holdover[22] 2.57133e-05
5 gpio_loopback_zero[22] 0.00356099
6 *103:50 0.000953367
7 *103:13 0.00389218
*RES
1 gpio_loopback_zero[22] *103:13 37.4323 
2 *103:13 gpio_holdover[22] 0.5625 
3 *103:13 gpio_analog_sel[22] 8.3775 
4 gpio_analog_sel[22] *103:50 13.49 
5 *103:50 gpio_analog_pol[22] 2.18 
6 *103:50 gpio_analog_en[22] 7.115 
*END

*D_NET *104 0.00971025
*CONN
*P gpio_analog_en[23] O
*P gpio_analog_pol[23] O
*P gpio_analog_sel[23] O
*P gpio_holdover[23] O
*P gpio_loopback_zero[23] I
*CAP
1 gpio_analog_en[23] 0.000298574
2 gpio_analog_pol[23] 2.87989e-05
3 gpio_analog_sel[23] 6.03405e-05
4 gpio_holdover[23] 1.81707e-05
5 gpio_loopback_zero[23] 0.00351233
6 *104:37 0.00102214
7 *104:25 0.000997251
8 *104:13 0.00377264
*RES
1 gpio_loopback_zero[23] *104:13 37.7092 
2 *104:13 gpio_holdover[23] 0.3975 
3 *104:13 *104:25 6.245 
4 *104:25 gpio_analog_sel[23] 3.32 
5 *104:25 *104:37 12.18 
6 *104:37 gpio_analog_pol[23] 2.63 
7 *104:37 gpio_analog_en[23] 7.565 
*END

*D_NET *105 0.00855719
*CONN
*P gpio_analog_en[24] O
*P gpio_analog_pol[24] O
*P gpio_analog_sel[24] O
*P gpio_holdover[24] O
*P gpio_loopback_zero[24] I
*CAP
1 gpio_analog_en[24] 0.000254048
2 gpio_analog_pol[24] 1.34956e-05
3 gpio_analog_sel[24] 1.34956e-05
4 gpio_holdover[24] 4.49852e-06
5 gpio_loopback_zero[24] 0.00320002
6 *105:43 0.000820027
7 *105:33 0.000806532
8 *105:23 0.00344507
*RES
1 gpio_loopback_zero[24] *105:23 48.9252 
2 *105:23 gpio_holdover[24] 0.0582667 
3 *105:23 *105:33 1.35373 
4 *105:33 gpio_analog_sel[24] 0.558267 
5 *105:33 *105:43 1.9608 
6 *105:43 gpio_analog_pol[24] 0.558267 
7 *105:43 gpio_analog_en[24] 1.412 
*END

*D_NET *106 0.0087103
*CONN
*P gpio_analog_en[25] O
*P gpio_analog_pol[25] O
*P gpio_analog_sel[25] O
*P gpio_holdover[25] O
*P gpio_loopback_zero[25] I
*CAP
1 gpio_analog_en[25] 0.000254048
2 gpio_analog_pol[25] 1.34956e-05
3 gpio_analog_sel[25] 3.12941e-05
4 gpio_holdover[25] 4.80169e-05
5 gpio_loopback_zero[25] 0.00310018
6 *106:47 0.000826987
7 *106:35 0.000864496
8 *106:21 0.000396685
9 *106:19 0.00317509
*RES
1 gpio_loopback_zero[25] *106:19 49.851 
2 *106:19 *106:21 0.271067 
3 *106:21 gpio_holdover[25] 0.1748 
4 *106:21 *106:35 1.52157 
5 *106:35 gpio_analog_sel[25] 0.620967 
6 *106:35 *106:47 1.9855 
7 *106:47 gpio_analog_pol[25] 0.558267 
8 *106:47 gpio_analog_en[25] 1.412 
*END

*D_NET *107 0.00870599
*CONN
*P gpio_analog_en[26] O
*P gpio_analog_pol[26] O
*P gpio_analog_sel[26] O
*P gpio_holdover[26] O
*P gpio_loopback_zero[26] I
*CAP
1 gpio_analog_en[26] 0.000254048
2 gpio_analog_pol[26] 1.34956e-05
3 gpio_analog_sel[26] 8.80146e-05
4 gpio_holdover[26] 1.34956e-05
5 gpio_loopback_zero[26] 0.00319091
6 *107:49 0.000787014
7 *107:31 0.000881051
8 *107:21 0.00347797
*RES
1 gpio_loopback_zero[26] *107:21 49.2908 
2 *107:21 gpio_holdover[26] 0.0582667 
3 *107:21 *107:31 1.4709 
4 *107:31 gpio_analog_sel[26] 0.905967 
5 *107:31 *107:49 1.84363 
6 *107:49 gpio_analog_pol[26] 0.558267 
7 *107:49 gpio_analog_en[26] 1.412 
*END

*D_NET *108 0.00851253
*CONN
*P gpio_analog_en[27] O
*P gpio_analog_pol[27] O
*P gpio_analog_sel[27] O
*P gpio_holdover[27] O
*P gpio_loopback_zero[27] I
*CAP
1 gpio_analog_en[27] 0.000254048
2 gpio_analog_pol[27] 1.34956e-05
3 gpio_analog_sel[27] 1.34956e-05
4 gpio_holdover[27] 0.000842379
5 gpio_loopback_zero[27] 0.00258036
6 *108:46 0.000820027
7 *108:36 0.000806532
8 *108:15 0.00318219
*RES
1 gpio_loopback_zero[27] *108:15 48.4596 
2 *108:15 gpio_holdover[27] 11.5075 
3 gpio_holdover[27] *108:36 1.35373 
4 *108:36 gpio_analog_sel[27] 0.558267 
5 *108:36 *108:46 1.9608 
6 *108:46 gpio_analog_pol[27] 0.558267 
7 *108:46 gpio_analog_en[27] 1.412 
*END

*D_NET *109 0.0105347
*CONN
*P gpio_analog_pol[28] O
*P gpio_analog_en[28] O
*P gpio_analog_sel[28] O
*P gpio_holdover[28] O
*P gpio_loopback_zero[28] I
*CAP
1 gpio_analog_pol[28] 2.36661e-05
2 gpio_analog_en[28] 0.00041005
3 gpio_analog_sel[28] 0.000441882
4 gpio_holdover[28] 4.80169e-05
5 gpio_loopback_zero[28] 0.00254735
6 *109:57 0.00171523
7 *109:21 0.00100479
8 *109:13 0.00434376
*RES
1 gpio_loopback_zero[28] *109:13 45.8094 
2 *109:13 *109:21 2.2271 
3 *109:21 gpio_holdover[28] 0.1748 
4 *109:21 gpio_analog_sel[28] 1.95573 
5 *109:13 *109:57 18.6819 
6 *109:57 gpio_analog_en[28] 1.7727 
7 *109:57 gpio_analog_pol[28] 0.124767 
*END

*D_NET *110 0.0107387
*CONN
*P gpio_analog_en[29] O
*P gpio_analog_pol[29] O
*P gpio_analog_sel[29] O
*P gpio_holdover[29] O
*P gpio_loopback_zero[29] I
*CAP
1 gpio_analog_en[29] 0.000442713
2 gpio_analog_pol[29] 4.80169e-05
3 gpio_analog_sel[29] 0.000529515
4 gpio_holdover[29] 0.000575087
5 gpio_loopback_zero[29] 0.0024821
6 *110:49 0.00152141
7 *110:27 0.00182145
8 *110:13 0.00331843
*RES
1 gpio_loopback_zero[29] *110:13 44.2946 
2 *110:13 gpio_holdover[29] 2.4589 
3 *110:13 *110:27 5.715 
4 *110:27 gpio_analog_sel[29] 2.3791 
5 *110:27 *110:49 13.5432 
6 *110:49 gpio_analog_pol[29] 0.1748 
7 *110:49 gpio_analog_en[29] 1.95573 
*END

*D_NET *111 0.0086424
*CONN
*P gpio_analog_sel[2] O
*P gpio_analog_pol[2] O
*P gpio_analog_en[2] O
*P gpio_holdover[2] O
*P gpio_loopback_zero[2] I
*CAP
1 gpio_analog_sel[2] 1.02684e-05
2 gpio_analog_pol[2] 1.32022e-05
3 gpio_analog_en[2] 0.000253754
4 gpio_holdover[2] 0.00349686
5 gpio_loopback_zero[2] 0.00308558
6 *111:57 0.000814069
7 *111:53 0.000952293
8 *111:32 1.63707e-05
9 gpio_holdover[2] gpio_out[2] 0
10 gpio_holdover[2] *342:13 0
11 gpio_holdover[2] *507:9 0
*RES
1 gpio_loopback_zero[2] gpio_holdover[2] 38.6057 
2 gpio_holdover[2] *111:32 0.143767 
3 gpio_holdover[2] *111:53 1.7081 
4 *111:53 *111:57 2.4608 
5 *111:57 gpio_analog_en[2] 1.41073 
6 *111:57 gpio_analog_pol[2] 0.557 
7 *111:53 gpio_analog_sel[2] 0.057 
*END

*D_NET *112 0.0102517
*CONN
*P gpio_analog_en[30] O
*P gpio_analog_pol[30] O
*P gpio_analog_sel[30] O
*P gpio_holdover[30] O
*P gpio_loopback_zero[30] I
*CAP
1 gpio_analog_en[30] 0.000371128
2 gpio_analog_pol[30] 4.80169e-05
3 gpio_analog_sel[30] 0.000392839
4 gpio_holdover[30] 0.00096998
5 gpio_loopback_zero[30] 0.00248683
6 *112:65 0.00166904
7 *112:53 3.18808e-05
8 *112:13 0.00428198
*RES
1 gpio_loopback_zero[30] *112:13 44.3098 
2 *112:13 gpio_holdover[30] 2.38923 
3 gpio_holdover[30] gpio_analog_sel[30] 1.68783 
4 gpio_holdover[30] *112:53 0.151367 
5 *112:13 *112:65 18.1636 
6 *112:65 gpio_analog_pol[30] 0.1748 
7 *112:65 gpio_analog_en[30] 1.49213 
*END

*D_NET *113 0.00828162
*CONN
*P gpio_analog_en[31] O
*P gpio_analog_pol[31] O
*P gpio_analog_sel[31] O
*P gpio_holdover[31] O
*P gpio_loopback_zero[31] I
*CAP
1 gpio_analog_en[31] 0.00029127
2 gpio_analog_pol[31] 1.34956e-05
3 gpio_analog_sel[31] 1.34956e-05
4 gpio_holdover[31] 0.00327006
5 gpio_loopback_zero[31] 0.00302951
6 *113:44 0.00085725
7 *113:32 0.000806532
*RES
1 gpio_loopback_zero[31] gpio_holdover[31] 46.1662 
2 gpio_holdover[31] *113:32 1.35373 
3 *113:32 gpio_analog_sel[31] 0.558267 
4 *113:32 *113:44 2.4608 
5 *113:44 gpio_analog_pol[31] 0.0582667 
6 *113:44 gpio_analog_en[31] 6.20607 
*END

*D_NET *114 0.0086538
*CONN
*P gpio_analog_en[32] O
*P gpio_analog_pol[32] O
*P gpio_analog_sel[32] O
*P gpio_holdover[32] O
*P gpio_loopback_zero[32] I
*CAP
1 gpio_analog_en[32] 0.000254048
2 gpio_analog_pol[32] 1.34956e-05
3 gpio_analog_sel[32] 1.34956e-05
4 gpio_holdover[32] 0.000804589
5 gpio_loopback_zero[32] 0.00268879
6 *114:42 0.000820027
7 *114:32 0.000806532
8 *114:15 0.00325283
*RES
1 gpio_loopback_zero[32] *114:15 49.3745 
2 *114:15 gpio_holdover[32] 1.8791 
3 gpio_holdover[32] *114:32 1.35373 
4 *114:32 gpio_analog_sel[32] 0.558267 
5 *114:32 *114:42 1.9608 
6 *114:42 gpio_analog_pol[32] 0.558267 
7 *114:42 gpio_analog_en[32] 1.412 
*END

*D_NET *115 0.0107248
*CONN
*P gpio_analog_en[33] O
*P gpio_analog_pol[33] O
*P gpio_analog_sel[33] O
*P gpio_holdover[33] O
*P gpio_loopback_zero[33] I
*CAP
1 gpio_analog_en[33] 0.000396701
2 gpio_analog_pol[33] 4.80169e-05
3 gpio_analog_sel[33] 0.000442713
4 gpio_holdover[33] 4.80169e-05
5 gpio_loopback_zero[33] 0.00264686
6 *115:61 0.00171103
7 *115:21 0.0010045
8 *115:13 0.00442694
*RES
1 gpio_loopback_zero[33] *115:13 47.8697 
2 *115:13 *115:21 2.22077 
3 *115:21 gpio_holdover[33] 0.1748 
4 *115:21 gpio_analog_sel[33] 1.95573 
5 *115:13 *115:61 18.6546 
6 *115:61 gpio_analog_pol[33] 0.1748 
7 *115:61 gpio_analog_en[33] 1.72267 
*END

*D_NET *116 0.0092884
*CONN
*P gpio_analog_en[34] O
*P gpio_analog_pol[34] O
*P gpio_analog_sel[34] O
*P gpio_holdover[34] O
*P gpio_loopback_zero[34] I
*CAP
1 gpio_analog_en[34] 0.00043978
2 gpio_analog_pol[34] 2.69911e-05
3 gpio_analog_sel[34] 8.99705e-06
4 gpio_holdover[34] 4.49852e-06
5 gpio_loopback_zero[34] 0.00319419
6 *116:65 0.00119596
7 *116:35 0.000978737
8 *116:23 0.00343924
*RES
1 gpio_loopback_zero[34] *116:23 48.9252 
2 *116:23 gpio_holdover[34] 0.0582667 
3 *116:23 *116:35 1.85373 
4 *116:35 gpio_analog_sel[34] 0.0582667 
5 *116:35 *116:65 10.6001 
6 *116:65 gpio_analog_pol[34] 0.1748 
7 *116:65 gpio_analog_en[34] 1.95573 
*END

*D_NET *117 0.00899325
*CONN
*P gpio_analog_en[35] O
*P gpio_analog_pol[35] O
*P gpio_analog_sel[35] O
*P gpio_holdover[35] O
*P gpio_loopback_zero[35] I
*CAP
1 gpio_analog_en[35] 0.000254048
2 gpio_analog_pol[35] 1.0552e-05
3 gpio_analog_sel[35] 0.000254018
4 gpio_holdover[35] 1.0552e-05
5 gpio_loopback_zero[35] 0.00309714
6 *117:53 0.00108156
7 *117:21 0.000317927
8 *117:17 0.00396746
*RES
1 gpio_loopback_zero[35] *117:17 48.0992 
2 *117:17 *117:21 0.689367 
3 *117:21 gpio_holdover[35] 0.558267 
4 *117:21 gpio_analog_sel[35] 1.412 
5 *117:17 *117:53 18.1638 
6 *117:53 gpio_analog_pol[35] 0.558267 
7 *117:53 gpio_analog_en[35] 1.412 
*END

*D_NET *118 0.00885447
*CONN
*P gpio_analog_en[36] O
*P gpio_analog_pol[36] O
*P gpio_holdover[36] O
*P gpio_analog_sel[36] O
*P gpio_loopback_zero[36] I
*CAP
1 gpio_analog_en[36] 0.000254048
2 gpio_analog_pol[36] 1.34956e-05
3 gpio_holdover[36] 0.000264219
4 gpio_analog_sel[36] 3.05117e-05
5 gpio_loopback_zero[36] 0.000566423
6 *118:39 0.000809856
7 *118:27 0.000806532
8 *118:17 0.000567166
9 *118:15 0.00275623
10 *118:11 0.00278599
*RES
1 gpio_loopback_zero[36] *118:11 2.37213 
2 *118:11 *118:15 49.055 
3 *118:15 *118:17 1.75687 
4 *118:17 gpio_analog_sel[36] 0.132367 
5 *118:17 *118:27 0.5 
6 *118:27 gpio_holdover[36] 1.4481 
7 *118:27 *118:39 1.9247 
8 *118:39 gpio_analog_pol[36] 0.558267 
9 *118:39 gpio_analog_en[36] 1.412 
*END

*D_NET *119 0.00860378
*CONN
*P gpio_analog_en[37] O
*P gpio_analog_pol[37] O
*P gpio_analog_sel[37] O
*P gpio_holdover[37] O
*P gpio_loopback_zero[37] I
*CAP
1 gpio_analog_en[37] 0.000254048
2 gpio_analog_pol[37] 1.34956e-05
3 gpio_analog_sel[37] 1.19309e-05
4 gpio_holdover[37] 4.80169e-05
5 gpio_loopback_zero[37] 0.00305298
6 *119:57 0.000820027
7 *119:47 0.00093335
8 *119:25 0.00346993
*RES
1 gpio_loopback_zero[37] *119:25 46.7003 
2 *119:25 gpio_holdover[37] 0.1748 
3 *119:25 *119:47 2.00987 
4 *119:47 gpio_analog_sel[37] 0.558267 
5 *119:47 *119:57 1.9608 
6 *119:57 gpio_analog_pol[37] 0.558267 
7 *119:57 gpio_analog_en[37] 1.412 
*END

*D_NET *120 0.00893448
*CONN
*P gpio_analog_sel[38] O
*P gpio_holdover[38] O
*P gpio_analog_en[38] O
*P gpio_analog_pol[38] O
*P gpio_loopback_zero[38] I
*CAP
1 gpio_analog_sel[38] 0.000294589
2 gpio_holdover[38] 0.000766256
3 gpio_analog_en[38] 0.000294589
4 gpio_analog_pol[38] 0.00162364
5 gpio_loopback_zero[38] 0.00207735
6 *120:13 0.00387806
*RES
1 gpio_loopback_zero[38] *120:13 16.3192 
2 *120:13 gpio_analog_pol[38] 13.904 
3 gpio_analog_pol[38] gpio_analog_en[38] 7.5975 
4 *120:13 gpio_holdover[38] 11.1275 
5 gpio_holdover[38] gpio_analog_sel[38] 7.5975 
*END

*D_NET *121 0.00805324
*CONN
*P gpio_analog_pol[39] O
*P gpio_analog_en[39] O
*P gpio_analog_sel[39] O
*P gpio_holdover[39] O
*P gpio_loopback_zero[39] I
*CAP
1 gpio_analog_pol[39] 2.61761e-05
2 gpio_analog_en[39] 0.000307677
3 gpio_analog_sel[39] 0.000939987
4 gpio_holdover[39] 0.00302525
5 gpio_loopback_zero[39] 0.00275278
6 *121:59 0.00100136
*RES
1 gpio_loopback_zero[39] gpio_holdover[39] 28.1964 
2 gpio_holdover[39] gpio_analog_sel[39] 6.8775 
3 gpio_analog_sel[39] *121:59 14.2175 
4 *121:59 gpio_analog_en[39] 7.61 
5 *121:59 gpio_analog_pol[39] 2.675 
*END

*D_NET *122 0.00913166
*CONN
*P gpio_holdover[3] O
*P gpio_analog_sel[3] O
*P gpio_analog_pol[3] O
*P gpio_analog_en[3] O
*P gpio_loopback_zero[3] I
*CAP
1 gpio_holdover[3] 5.12734e-05
2 gpio_analog_sel[3] 1.92165e-05
3 gpio_analog_pol[3] 6.29793e-05
4 gpio_analog_en[3] 0.000455354
5 gpio_loopback_zero[3] 0.00299585
6 *122:49 0.00106537
7 *122:37 0.00100038
8 *122:17 0.00348125
9 gpio_holdover[3] gpio_out[3] 0
10 *122:17 gpio_oeb[3] 0
11 *122:17 *562:9 0
*RES
1 gpio_loopback_zero[3] *122:17 37.3431 
2 *122:17 *122:37 1.976 
3 *122:37 *122:49 9.8184 
4 *122:49 gpio_analog_en[3] 3.7367 
5 *122:49 gpio_analog_pol[3] 0.7565 
6 *122:37 gpio_analog_sel[3] 0.114633 
7 *122:17 gpio_holdover[3] 0.2755 
*END

*D_NET *123 0.00974725
*CONN
*P gpio_holdover[40] O
*P gpio_analog_sel[40] O
*P gpio_analog_en[40] O
*P gpio_analog_pol[40] O
*P gpio_loopback_zero[40] I
*CAP
1 gpio_holdover[40] 0.00048101
2 gpio_analog_sel[40] 0.00048101
3 gpio_analog_en[40] 0.000294417
4 gpio_analog_pol[40] 0.00137138
5 gpio_loopback_zero[40] 0.00227665
6 *123:15 0.00182154
7 *123:13 0.00302124
*RES
1 gpio_loopback_zero[40] *123:13 16.9902 
2 *123:13 *123:15 0.853733 
3 *123:15 gpio_analog_pol[40] 13.0883 
4 gpio_analog_pol[40] gpio_analog_en[40] 7.5975 
5 *123:15 gpio_analog_sel[40] 11.1275 
6 *123:13 gpio_holdover[40] 11.1275 
*END

*D_NET *124 0.0078554
*CONN
*P gpio_analog_sel[41] O
*P gpio_analog_pol[41] O
*P gpio_analog_en[41] O
*P gpio_holdover[41] O
*P gpio_loopback_zero[41] I
*CAP
1 gpio_analog_sel[41] 9.25679e-06
2 gpio_analog_pol[41] 9.25679e-06
3 gpio_analog_en[41] 0.000272792
4 gpio_holdover[41] 6.85688e-06
5 gpio_loopback_zero[41] 0.00276058
6 *124:31 0.000887472
7 *124:29 0.000878215
8 *124:19 0.00303097
*RES
1 gpio_loopback_zero[41] *124:19 28.0764 
2 *124:19 gpio_holdover[41] 0.2025 
3 *124:19 *124:29 1.35373 
4 *124:29 *124:31 1.9608 
5 *124:31 gpio_analog_en[41] 1.55623 
6 *124:31 gpio_analog_pol[41] 0.7025 
7 *124:29 gpio_analog_sel[41] 0.7025 
*END

*D_NET *125 0.00813278
*CONN
*P gpio_analog_pol[42] O
*P gpio_analog_en[42] O
*P gpio_analog_sel[42] O
*P gpio_holdover[42] O
*P gpio_loopback_zero[42] I
*CAP
1 gpio_analog_pol[42] 2.54905e-05
2 gpio_analog_en[42] 0.000306991
3 gpio_analog_sel[42] 0.000979243
4 gpio_holdover[42] 0.00306708
5 gpio_loopback_zero[42] 0.00275466
6 *125:67 0.000999308
*RES
1 gpio_loopback_zero[42] gpio_holdover[42] 28.2339 
2 gpio_holdover[42] gpio_analog_sel[42] 8.6175 
3 gpio_analog_sel[42] *125:67 14.2025 
4 *125:67 gpio_analog_en[42] 7.595 
5 *125:67 gpio_analog_pol[42] 2.66 
*END

*D_NET *126 0.00976952
*CONN
*P gpio_holdover[43] O
*P gpio_analog_sel[43] O
*P gpio_analog_en[43] O
*P gpio_analog_pol[43] O
*P gpio_loopback_zero[43] I
*CAP
1 gpio_holdover[43] 0.000475525
2 gpio_analog_sel[43] 0.000475525
3 gpio_analog_en[43] 0.000295789
4 gpio_analog_pol[43] 0.00136863
5 gpio_loopback_zero[43] 0.0023015
6 *126:15 0.00181194
7 *126:13 0.0030406
*RES
1 gpio_loopback_zero[43] *126:13 17.1459 
2 *126:13 *126:15 0.853733 
3 *126:15 gpio_analog_pol[43] 12.8633 
4 gpio_analog_pol[43] gpio_analog_en[43] 7.5975 
5 *126:15 gpio_analog_sel[43] 10.9025 
6 *126:13 gpio_holdover[43] 10.9025 
*END

*D_NET *127 0.00542107
*CONN
*P gpio_holdover[4] O
*P gpio_analog_sel[4] O
*P gpio_analog_pol[4] O
*P gpio_analog_en[4] O
*P gpio_loopback_zero[4] I
*CAP
1 gpio_holdover[4] 1.32022e-05
2 gpio_analog_sel[4] 7.33455e-06
3 gpio_analog_pol[4] 8.25186e-05
4 gpio_analog_en[4] 0.00031564
5 gpio_loopback_zero[4] 0.00150942
6 *127:21 0.000940029
7 *127:13 0.000789756
8 *127:9 0.00176317
*RES
1 gpio_loopback_zero[4] *127:9 5.87067 
2 *127:9 *127:13 1.35373 
3 *127:13 *127:21 11.4879 
4 *127:21 gpio_analog_en[4] 6.46263 
5 *127:21 gpio_analog_pol[4] 0.8629 
6 *127:13 gpio_analog_sel[4] 0.057 
7 *127:9 gpio_holdover[4] 0.557 
*END

*D_NET *128 0.00883462
*CONN
*P gpio_analog_sel[5] O
*P gpio_analog_pol[5] O
*P gpio_analog_en[5] O
*P gpio_holdover[5] O
*P gpio_loopback_zero[5] I
*CAP
1 gpio_analog_sel[5] 8.80146e-06
2 gpio_analog_pol[5] 9.85764e-05
3 gpio_analog_en[5] 0.000345813
4 gpio_holdover[5] 0.00344127
5 gpio_loopback_zero[5] 0.00307996
6 *128:58 0.000967242
7 *128:46 0.000892964
8 gpio_holdover[5] gpio_out[5] 0
*RES
1 gpio_loopback_zero[5] gpio_holdover[5] 38.1248 
2 gpio_holdover[5] *128:46 1.5428 
3 *128:46 *128:58 9.30777 
4 *128:58 gpio_analog_en[5] 7.35423 
5 *128:58 gpio_analog_pol[5] 0.956633 
6 *128:46 gpio_analog_sel[5] 0.057 
*END

*D_NET *129 0.00901376
*CONN
*P gpio_holdover[6] O
*P gpio_analog_en[6] O
*P gpio_analog_pol[6] O
*P gpio_analog_sel[6] O
*P gpio_loopback_zero[6] I
*CAP
1 gpio_holdover[6] 4.22861e-05
2 gpio_analog_en[6] 0.000381318
3 gpio_analog_pol[6] 0.00102918
4 gpio_analog_sel[6] 0.00111371
5 gpio_loopback_zero[6] 0.00296956
6 *129:48 2.31772e-05
7 *129:17 0.00345452
8 gpio_analog_sel[6] gpio_out[6] 0
9 gpio_holdover[6] gpio_out[6] 0
*RES
1 gpio_loopback_zero[6] *129:17 36.37 
2 *129:17 gpio_analog_sel[6] 1.96523 
3 gpio_analog_sel[6] *129:48 0.143767 
4 gpio_analog_sel[6] gpio_analog_pol[6] 9.92983 
5 gpio_analog_pol[6] gpio_analog_en[6] 1.5998 
6 *129:17 gpio_holdover[6] 0.265367 
*END

*D_NET *130 0.00896126
*CONN
*P gpio_holdover[7] O
*P gpio_analog_pol[7] O
*P gpio_analog_en[7] O
*P gpio_analog_sel[7] O
*P gpio_loopback_zero[7] I
*CAP
1 gpio_holdover[7] 5.00999e-05
2 gpio_analog_pol[7] 2.93382e-06
3 gpio_analog_en[7] 0.000388203
4 gpio_analog_sel[7] 1.38476e-05
5 gpio_loopback_zero[7] 0.0029263
6 *130:69 0.00104747
7 *130:37 0.0011131
8 *130:17 0.00341931
9 gpio_holdover[7] gpio_out[7] 0
10 *130:17 *527:9 0
*RES
1 gpio_loopback_zero[7] *130:17 35.8144 
2 *130:17 *130:37 1.976 
3 *130:37 gpio_analog_sel[7] 0.1197 
4 *130:37 *130:69 10.0299 
5 *130:69 gpio_analog_en[7] 1.5998 
6 *130:69 gpio_analog_pol[7] 0.057 
7 *130:17 gpio_holdover[7] 0.270433 
*END

*D_NET *131 0.00856585
*CONN
*P gpio_analog_sel[8] O
*P gpio_analog_pol[8] O
*P gpio_analog_en[8] O
*P gpio_holdover[8] O
*P gpio_loopback_zero[8] I
*CAP
1 gpio_analog_sel[8] 1.32022e-05
2 gpio_analog_pol[8] 1.24101e-05
3 gpio_analog_en[8] 0.000393239
4 gpio_holdover[8] 0.00331161
5 gpio_loopback_zero[8] 0.00293758
6 *131:52 0.000958116
7 *131:46 0.000939692
8 gpio_holdover[8] gpio_out[8] 0
9 gpio_holdover[8] *527:9 0
*RES
1 gpio_loopback_zero[8] gpio_holdover[8] 35.5241 
2 gpio_holdover[8] *131:46 1.5428 
3 *131:46 *131:52 2.9608 
4 *131:52 gpio_analog_en[8] 1.5998 
5 *131:52 gpio_analog_pol[8] 0.057 
6 *131:46 gpio_analog_sel[8] 0.057 
*END

*D_NET *132 0.00828147
*CONN
*P gpio_analog_sel[9] O
*P gpio_analog_pol[9] O
*P gpio_analog_en[9] O
*P gpio_holdover[9] O
*P gpio_loopback_zero[9] I
*CAP
1 gpio_analog_sel[9] 1.32022e-05
2 gpio_analog_pol[9] 1.32022e-05
3 gpio_analog_en[9] 0.000253754
4 gpio_holdover[9] 0.00331346
5 gpio_loopback_zero[9] 0.00294535
6 *132:50 0.000814069
7 *132:46 0.000928431
8 gpio_holdover[9] gpio_out[9] 0
9 gpio_holdover[9] *528:9 0
10 gpio_holdover[9] *530:9 0
*RES
1 gpio_loopback_zero[9] gpio_holdover[9] 35.5254 
2 gpio_holdover[9] *132:46 1.5428 
3 *132:46 *132:50 2.4608 
4 *132:50 gpio_analog_en[9] 1.41073 
5 *132:50 gpio_analog_pol[9] 0.557 
6 *132:46 gpio_analog_sel[9] 0.057 
*END

*D_NET *309 0.00948915
*CONN
*P gpio_in[0] I
*I *698:wb_clk_i I *D user_proj_timer
*CAP
1 gpio_in[0] 0.00474457
2 *698:wb_clk_i 0.00474457
*RES
1 gpio_in[0] *698:wb_clk_i 15.4869 
*END

*D_NET *310 0.0319869
*CONN
*P gpio_in[10] I
*I *698:io_in[8] I *D user_proj_timer
*CAP
1 gpio_in[10] 0.000908076
2 *698:io_in[8] 0.00370362
3 *310:13 0.0150854
4 *310:11 0.0122898
5 *310:13 *311:13 0
6 *310:13 *528:9 0
7 *310:13 *530:9 0
8 *310:13 *572:9 0
*RES
1 gpio_in[10] *310:11 3.47857 
2 *310:11 *310:13 248.985 
3 *310:13 *698:io_in[8] 12.4928 
*END

*D_NET *311 0.0269916
*CONN
*P gpio_in[11] I
*I *698:io_in[9] I *D user_proj_timer
*CAP
1 gpio_in[11] 0.000940935
2 *698:io_in[9] 0.00366767
3 *311:13 0.0125549
4 *311:11 0.00982814
5 *311:13 *486:9 0
6 *311:13 *530:9 0
7 *311:13 *531:9 0
8 *310:13 *311:13 0
*RES
1 gpio_in[11] *311:11 3.58497 
2 *311:11 *311:13 194.415 
3 *311:13 *698:io_in[9] 12.3763 
*END

*D_NET *312 0.0219971
*CONN
*P gpio_in[12] I
*I *698:io_in[10] I *D user_proj_timer
*CAP
1 gpio_in[12] 0.000938196
2 *698:io_in[10] 0.00366767
3 *312:13 0.0100603
4 *312:11 0.00733087
5 *312:13 *487:9 0
6 *312:13 *531:9 0
7 *312:13 *532:9 0
*RES
1 gpio_in[12] *312:11 3.5761 
2 *312:11 *312:13 139.845 
3 *312:13 *698:io_in[10] 12.3763 
*END

*D_NET *320 0.0177254
*CONN
*P gpio_in[1] I
*I *698:wb_rst_i I *D user_proj_timer
*CAP
1 gpio_in[1] 0.000929239
2 *698:wb_rst_i 0.00368562
3 *320:13 0.00793346
4 *320:11 0.00517708
5 *320:13 *331:13 0
*RES
1 gpio_in[1] *320:11 3.54697 
2 *320:11 *320:13 92.925 
3 *320:13 *698:wb_rst_i 12.4345 
*END

*D_NET *331 0.0263451
*CONN
*P gpio_in[2] I
*I *698:io_in[0] I *D user_proj_timer
*CAP
1 gpio_in[2] 0.000944064
2 *698:io_in[0] 0.00366767
3 *331:13 0.0122285
4 *331:11 0.00950488
5 *331:13 *551:9 0
6 gpio_holdover[1] *331:13 0
7 *320:13 *331:13 0
*RES
1 gpio_in[2] *331:11 3.5951 
2 *331:11 *331:13 187.275 
3 *331:13 *698:io_in[0] 12.3763 
*END

*D_NET *342 0.0214332
*CONN
*P gpio_in[3] I
*I *698:io_in[1] I *D user_proj_timer
*CAP
1 gpio_in[3] 0.000959359
2 *698:io_in[1] 0.00366767
3 *342:13 0.00975726
4 *342:11 0.00704895
5 *342:13 *507:9 0
6 *342:13 *551:9 0
7 *342:13 *562:9 0
8 gpio_holdover[2] *342:13 0
*RES
1 gpio_in[3] *342:11 3.6255 
2 *342:11 *342:13 133.215 
3 *342:13 *698:io_in[1] 12.3763 
*END

*D_NET *347 0.0164378
*CONN
*P gpio_in[4] I
*I *698:io_in[2] I *D user_proj_timer
*CAP
1 gpio_in[4] 0.000956191
2 *698:io_in[2] 0.00366767
3 *347:13 0.00726273
4 *347:11 0.00455125
5 *347:13 gpio_out[4] 0
*RES
1 gpio_in[4] *347:11 3.61537 
2 *347:11 *347:13 78.645 
3 *347:13 *698:io_in[2] 12.3763 
*END

*D_NET *348 0.0115252
*CONN
*P gpio_in[5] I
*I *698:io_in[3] I *D user_proj_timer
*CAP
1 gpio_in[5] 0.00576261
2 *698:io_in[3] 0.00576261
*RES
1 gpio_in[5] *698:io_in[3] 36.3937 
*END

*D_NET *349 0.0119412
*CONN
*P gpio_in[6] I
*I *698:io_in[4] I *D user_proj_timer
*CAP
1 gpio_in[6] 0.00597062
2 *698:io_in[4] 0.00597062
*RES
1 gpio_in[6] *698:io_in[4] 45.6627 
*END

*D_NET *350 0.0468479
*CONN
*P gpio_in[7] I
*I *698:io_in[5] I *D user_proj_timer
*CAP
1 gpio_in[7] 0.000960885
2 *698:io_in[5] 0.00366767
3 *350:13 0.0224631
4 *350:11 0.0197563
5 *350:13 *570:9 0
*RES
1 gpio_in[7] *350:11 3.63057 
2 *350:11 *350:13 411.165 
3 *350:13 *698:io_in[5] 12.3763 
*END

*D_NET *351 0.0419066
*CONN
*P gpio_in[8] I
*I *698:io_in[6] I *D user_proj_timer
*CAP
1 gpio_in[8] 0.000902169
2 *698:io_in[6] 0.00370365
3 *351:13 0.0200511
4 *351:11 0.0172497
5 *351:13 *352:13 0
6 *351:13 *526:9 0
7 *351:13 *570:9 0
8 *351:13 *571:9 0
9 *351:13 *572:9 0
*RES
1 gpio_in[8] *351:11 3.45957 
2 *351:11 *351:13 357.615 
3 *351:13 *698:io_in[6] 12.4928 
*END

*D_NET *352 0.0369239
*CONN
*P gpio_in[9] I
*I *698:io_in[7] I *D user_proj_timer
*CAP
1 gpio_in[9] 0.000941326
2 *698:io_in[7] 0.00366767
3 *352:13 0.0175206
4 *352:11 0.0147943
5 *352:11 *530:7 0
6 *352:13 *570:9 0
7 *352:13 *572:9 0
8 *351:13 *352:13 0
*RES
1 gpio_in[9] *352:11 3.58623 
2 *352:11 *352:13 303.045 
3 *352:13 *698:io_in[7] 12.3763 
*END

*D_NET *486 0.0232302
*CONN
*P gpio_oeb[10] O
*I *698:io_oeb[8] O *D user_proj_timer
*CAP
1 gpio_oeb[10] 0.000876704
2 *698:io_oeb[8] 0.0037396
3 *486:9 0.00787552
4 *486:7 0.0107384
5 *486:9 *530:9 0
6 *486:9 *531:9 0
7 gpio_holdover[10] *486:9 0
8 *311:13 *486:9 0
*RES
1 *698:io_oeb[8] *486:7 12.6093 
2 *486:7 *486:9 153.105 
3 *486:9 gpio_oeb[10] 3.37723 
*END

*D_NET *487 0.0182351
*CONN
*P gpio_oeb[11] O
*I *698:io_oeb[9] O *D user_proj_timer
*CAP
1 gpio_oeb[11] 0.000909601
2 *698:io_oeb[9] 0.00370365
3 *487:9 0.00541389
4 *487:7 0.00820794
5 *487:9 *531:9 0
6 *312:13 *487:9 0
*RES
1 *698:io_oeb[9] *487:7 12.4928 
2 *487:7 *487:9 98.535 
3 *487:9 gpio_oeb[11] 3.48363 
*END

*D_NET *488 0.0132398
*CONN
*P gpio_oeb[12] O
*I *698:io_oeb[10] O *D user_proj_timer
*CAP
1 gpio_oeb[12] 0.00295221
2 *698:io_oeb[10] 0.00366767
3 *488:7 0.00661988
4 gpio_oeb[12] *532:9 0
5 *92:17 gpio_oeb[12] 0
*RES
1 *698:io_oeb[10] *488:7 12.3763 
2 *488:7 gpio_oeb[12] 47.555 
*END

*D_NET *507 0.0175886
*CONN
*P gpio_oeb[2] O
*I *698:io_oeb[0] O *D user_proj_timer
*CAP
1 gpio_oeb[2] 0.000912731
2 *698:io_oeb[0] 0.00370365
3 *507:9 0.00509063
4 *507:7 0.00788155
5 *507:9 *551:9 0
6 gpio_holdover[2] *507:9 0
7 *342:13 *507:9 0
*RES
1 *698:io_oeb[0] *507:7 12.4928 
2 *507:7 *507:9 91.395 
3 *507:9 gpio_oeb[2] 3.49377 
*END

*D_NET *518 0.0126841
*CONN
*P gpio_oeb[3] O
*I *698:io_oeb[1] O *D user_proj_timer
*CAP
1 gpio_oeb[3] 0.00267441
2 *698:io_oeb[1] 0.00366767
3 *518:7 0.00634207
4 gpio_oeb[3] *562:9 0
5 *122:17 gpio_oeb[3] 0
*RES
1 *698:io_oeb[1] *518:7 12.3763 
2 *518:7 gpio_oeb[3] 41.4414 
*END

*D_NET *523 0.0107787
*CONN
*P gpio_oeb[4] O
*I *698:io_oeb[2] O *D user_proj_timer
*CAP
1 gpio_oeb[4] 0.00538935
2 *698:io_oeb[2] 0.00538935
*RES
1 *698:io_oeb[2] gpio_oeb[4] 32.9178 
*END

*D_NET *524 0.015908
*CONN
*P gpio_oeb[5] O
*I *698:io_oeb[3] O *D user_proj_timer
*CAP
1 gpio_oeb[5] 0.00441982
2 *698:io_oeb[3] 0.00042869
3 *524:9 0.0075253
4 *524:7 0.00353417
*RES
1 *698:io_oeb[3] *524:7 1.88827 
2 *524:7 *524:9 67.935 
3 *524:9 gpio_oeb[5] 14.9356 
*END

*D_NET *525 0.0206975
*CONN
*P gpio_oeb[6] O
*I *698:io_oeb[4] O *D user_proj_timer
*CAP
1 gpio_oeb[6] 0.00418015
2 *698:io_oeb[4] 0.00042869
3 *525:9 0.00992004
4 *525:7 0.00616858
5 *525:9 *569:9 0
*RES
1 *698:io_oeb[4] *525:7 1.88827 
2 *525:7 *525:9 125.565 
3 *525:9 gpio_oeb[6] 14.0742 
*END

*D_NET *526 0.0380925
*CONN
*P gpio_oeb[7] O
*I *698:io_oeb[5] O *D user_proj_timer
*CAP
1 gpio_oeb[7] 0.000870836
2 *698:io_oeb[5] 0.0037396
3 *526:9 0.0153066
4 *526:7 0.0181754
5 *526:9 *527:9 0
6 *526:9 *570:9 0
7 *526:9 *571:9 0
8 *351:13 *526:9 0
*RES
1 *698:io_oeb[5] *526:7 12.6093 
2 *526:7 *526:9 315.795 
3 *526:9 gpio_oeb[7] 3.35823 
*END

*D_NET *527 0.0331493
*CONN
*P gpio_oeb[8] O
*I *698:io_oeb[6] O *D user_proj_timer
*CAP
1 gpio_oeb[8] 0.000852451
2 *698:io_oeb[6] 0.00375764
3 *527:9 0.012817
4 *527:7 0.0157222
5 *527:9 *528:9 0
6 *527:9 *571:9 0
7 gpio_holdover[8] *527:9 0
8 *130:17 *527:9 0
9 *526:9 *527:9 0
*RES
1 *698:io_oeb[6] *527:7 12.6676 
2 *527:7 *527:9 261.735 
3 *527:9 gpio_oeb[8] 3.2987 
*END

*D_NET *528 0.0281538
*CONN
*P gpio_oeb[9] O
*I *698:io_oeb[7] O *D user_proj_timer
*CAP
1 gpio_oeb[9] 0.000867315
2 *698:io_oeb[7] 0.00373956
3 *528:9 0.0103374
4 *528:7 0.0132096
5 *528:9 *530:9 0
6 *528:9 *571:9 0
7 *528:9 *572:9 0
8 gpio_holdover[9] *528:9 0
9 *310:13 *528:9 0
10 *527:9 *528:9 0
*RES
1 *698:io_oeb[7] *528:7 12.6093 
2 *528:7 *528:9 207.165 
3 *528:9 gpio_oeb[9] 3.34683 
*END

*D_NET *530 0.0289654
*CONN
*P gpio_out[10] O
*I *698:io_out[8] O *D user_proj_timer
*CAP
1 gpio_out[10] 0.000894698
2 *698:io_out[8] 0.00372165
3 *530:9 0.0107611
4 *530:7 0.013588
5 gpio_holdover[10] gpio_out[10] 0
6 gpio_holdover[9] *530:9 0
7 *310:13 *530:9 0
8 *311:13 *530:9 0
9 *352:11 *530:7 0
10 *486:9 *530:9 0
11 *528:9 *530:9 0
*RES
1 *698:io_out[8] *530:7 12.5511 
2 *530:7 *530:9 215.835 
3 *530:9 gpio_out[10] 3.4355 
*END

*D_NET *531 0.0239703
*CONN
*P gpio_out[11] O
*I *698:io_out[9] O *D user_proj_timer
*CAP
1 gpio_out[11] 0.000927674
2 *698:io_out[9] 0.00368566
3 *531:9 0.00829951
4 *531:7 0.0110575
5 gpio_holdover[10] *531:9 0
6 *91:29 gpio_out[11] 0
7 *311:13 *531:9 0
8 *312:13 *531:9 0
9 *486:9 *531:9 0
10 *487:9 *531:9 0
*RES
1 *698:io_out[9] *531:7 12.4345 
2 *531:7 *531:9 161.265 
3 *531:9 gpio_out[11] 3.5419 
*END

*D_NET *532 0.0189748
*CONN
*P gpio_out[12] O
*I *698:io_out[10] O *D user_proj_timer
*CAP
1 gpio_out[12] 0.000924447
2 *698:io_out[10] 0.00368566
3 *532:9 0.00580175
4 *532:7 0.00856296
5 gpio_holdover[12] gpio_out[12] 0
6 gpio_oeb[12] *532:9 0
7 *92:17 gpio_out[12] 0
8 *92:17 *532:9 0
9 *312:13 *532:9 0
*RES
1 *698:io_out[10] *532:7 12.4345 
2 *532:7 *532:9 106.695 
3 *532:9 gpio_out[12] 3.53177 
*END

*D_NET *551 0.0233236
*CONN
*P gpio_out[2] O
*I *698:io_out[0] O *D user_proj_timer
*CAP
1 gpio_out[2] 0.000930745
2 *698:io_out[0] 0.00368562
3 *551:9 0.00797619
4 *551:7 0.0107311
5 gpio_holdover[1] *551:9 0
6 gpio_holdover[2] gpio_out[2] 0
7 *331:13 *551:9 0
8 *342:13 *551:9 0
9 *507:9 *551:9 0
*RES
1 *698:io_out[0] *551:7 12.4345 
2 *551:7 *551:9 154.125 
3 *551:9 gpio_out[2] 3.55203 
*END

*D_NET *562 0.0184309
*CONN
*P gpio_out[3] O
*I *698:io_out[1] O *D user_proj_timer
*CAP
1 gpio_out[3] 0.000932251
2 *698:io_out[1] 0.00368566
3 *562:9 0.00552979
4 *562:7 0.0082832
5 gpio_holdover[3] gpio_out[3] 0
6 gpio_oeb[3] *562:9 0
7 *122:17 *562:9 0
8 *342:13 *562:9 0
*RES
1 *698:io_out[1] *562:7 12.4345 
2 *562:7 *562:9 100.575 
3 *562:9 gpio_out[3] 3.5381 
*END

*D_NET *567 0.0134166
*CONN
*P gpio_out[4] O
*I *698:io_out[2] O *D user_proj_timer
*CAP
1 gpio_out[4] 0.00302262
2 *698:io_out[2] 0.00368566
3 *567:7 0.00670828
4 *347:13 gpio_out[4] 0
*RES
1 *698:io_out[2] *567:7 12.4345 
2 *567:7 gpio_out[4] 49.0673 
*END

*D_NET *568 0.0101459
*CONN
*P gpio_out[5] O
*I *698:io_out[3] O *D user_proj_timer
*CAP
1 gpio_out[5] 0.00507294
2 *698:io_out[3] 0.00507294
3 gpio_holdover[5] gpio_out[5] 0
*RES
1 *698:io_out[3] gpio_out[5] 17.5851 
*END

*D_NET *569 0.0150402
*CONN
*P gpio_out[6] O
*I *698:io_out[4] O *D user_proj_timer
*CAP
1 gpio_out[6] 0.0042477
2 *698:io_out[4] 0.000446684
3 *569:9 0.00707342
4 *569:7 0.0032724
5 gpio_analog_sel[6] gpio_out[6] 0
6 gpio_holdover[6] gpio_out[6] 0
7 *525:9 *569:9 0
*RES
1 *698:io_out[4] *569:7 1.94653 
2 *569:7 *569:9 61.815 
3 *569:9 gpio_out[6] 14.3402 
*END

*D_NET *570 0.0438394
*CONN
*P gpio_out[7] O
*I *698:io_out[5] O *D user_proj_timer
*CAP
1 gpio_out[7] 0.000930686
2 *698:io_out[5] 0.00368566
3 *570:9 0.018234
4 *570:7 0.020989
5 gpio_holdover[7] gpio_out[7] 0
6 *350:13 *570:9 0
7 *351:13 *570:9 0
8 *352:13 *570:9 0
9 *526:9 *570:9 0
*RES
1 *698:io_out[5] *570:7 12.4345 
2 *570:7 *570:9 378.525 
3 *570:9 gpio_out[7] 3.53303 
*END

*D_NET *571 0.0388844
*CONN
*P gpio_out[8] O
*I *698:io_out[6] O *D user_proj_timer
*CAP
1 gpio_out[8] 0.000888458
2 *698:io_out[6] 0.00372165
3 *571:9 0.0157206
4 *571:7 0.0185538
5 *571:9 *572:9 0
6 gpio_holdover[8] gpio_out[8] 0
7 *351:13 *571:9 0
8 *526:9 *571:9 0
9 *527:9 *571:9 0
10 *528:9 *571:9 0
*RES
1 *698:io_out[6] *571:7 12.5511 
2 *571:7 *571:9 324.465 
3 *571:9 gpio_out[8] 3.41523 
*END

*D_NET *572 0.0338891
*CONN
*P gpio_out[9] O
*I *698:io_out[7] O *D user_proj_timer
*CAP
1 gpio_out[9] 0.000921317
2 *698:io_out[7] 0.00368566
3 *572:9 0.0132589
4 *572:7 0.0160232
5 gpio_holdover[9] gpio_out[9] 0
6 *310:13 *572:9 0
7 *351:13 *572:9 0
8 *352:13 *572:9 0
9 *528:9 *572:9 0
10 *571:9 *572:9 0
*RES
1 *698:io_out[7] *572:7 12.4345 
2 *572:7 *572:9 269.895 
3 *572:9 gpio_out[9] 3.52163 
*END
